169
M2TTM-3Flr-M2TTM (Chowdhury, 2025)
C    8.742193   -3.503870   -1.263390
C    7.357186   -3.406560   -1.093951
C    6.778156   -2.220641   -0.656711
C    7.527788   -1.055636   -0.352283
C    8.927055   -1.200122   -0.535185
C    9.520117   -2.377197   -0.977391
C    6.904838    0.198299    0.112204
C    7.262924    1.478749   -0.526777
C    7.277930    1.661195   -1.933314
C    7.624838    2.633519    0.213324
C    7.620216    2.863388   -2.541999
C    7.963283    3.844111   -0.380655
C    7.968159    3.978631   -1.772895
C    5.926224    0.171635    1.212411
C    4.671650    0.832516    1.148332
C    6.152541   -0.517424    2.432549
C    3.745404    0.815003    2.182112
C    5.234230   -0.550635    3.472776
C    4.007675    0.119126    3.369792
C    9.372754   -4.777000   -1.736231
C    9.487495   -5.033999   -3.118218
C    9.853612   -5.713999   -0.798167
C   10.082718   -6.228676   -3.536968
C   10.440232   -6.895932   -1.262492
C   10.562360   -7.175024   -2.626815
C    8.334706    5.277983   -2.420436
C    9.688220    5.575880   -2.681921
C    7.325251    6.198305   -2.771618
C   10.007481    6.793910   -3.291307
C    7.690947    7.404616   -3.377987
C    9.025547    7.724302   -3.644243
C    5.866347    5.901968   -2.505537
C   10.789433    4.603387   -2.322830
C    9.397637    9.047119   -4.271277
C    9.746658   -5.460893    0.688998
C    8.985859   -4.043058   -4.144837
C   11.171221   -8.472714   -3.103233
C    3.021666    0.091054    4.477461
C    3.452814    0.102288    5.817997
C    1.642512    0.052738    4.206634
C    2.540409    0.075372    6.875411
C    0.734199    0.025480    5.262916
C    1.178096    0.037028    6.599996
C   -0.734531   -0.027653    5.262848
C   -1.178542   -0.039752    6.599885
C   -1.642774   -0.054474    4.206447
C   -2.540876   -0.078210    6.875290
C   -3.021949   -0.092899    4.477212
C   -3.453200   -0.104687    5.817688
C   -4.007873   -0.120509    3.369485
C   -3.745522   -0.815905    2.181512
C   -5.234431    0.549216    3.472589
C   -4.671692   -0.833005    1.147656
C   -6.152665    0.516447    2.432284
C   -5.926268   -0.172118    1.211818
C   -6.904804   -0.198337    0.111608
C   -7.527689    1.055789   -0.352454
C   -7.262896   -1.478540   -0.527871
C   -6.778002    2.220874   -0.656445
C   -8.926945    1.200405   -0.535364
C   -7.277884   -1.660442   -1.934446
C   -7.624836   -2.633585    0.211790
C   -7.356973    3.406969   -1.093288
C   -9.520117    2.377646   -0.977218
C   -7.620152   -2.862350   -2.543623
C   -7.963299   -3.843952   -0.382657
C   -8.741969    3.504392   -1.262742
C   -7.968170   -3.977929   -1.774950
C   -9.372463    4.777715   -1.735153
C   -8.334790   -5.277019   -2.422998
C   -9.487008    5.035281   -3.117015
C   -9.853450    5.714337   -0.796788
C   -9.688140   -5.573920   -2.686414
C   -7.325503   -6.198065   -2.772776
C   -10.082173    6.229983   -3.535381
C   -8.985507    4.044795   -4.144005
C   -10.439525    6.896740   -1.260655
C   -9.746654    5.460833    0.690327
C   -10.007454   -6.791684   -3.296178
C   -10.789112   -4.600609   -2.328723
C   -7.691250   -7.404107   -3.379654
C   -5.866753   -5.902756   -2.504740
C   -10.561928    7.175850   -2.624935
C   -9.025703   -7.722814   -3.647732
C   -11.170722    8.474254   -3.101014
C   -9.398009   -9.045335   -4.275323
C   -0.000260   -0.001563    7.571217
C    0.041665   -1.266831    8.458428
C   -0.042253    1.263321    8.458949
Cl   7.685324   -1.325171    2.744238
Cl   4.163692    1.668249   -0.315152
Cl   7.760718    2.578036    1.967664
Cl   6.760971    0.374648   -3.017834
Cl  10.033346    0.102547   -0.113186
Cl   5.019253   -2.208535   -0.587067
Cl  -4.163635   -1.668132   -0.316151
Cl  -7.685466    1.324072    2.744203
Cl  -5.019101    2.208676   -0.586768
Cl -10.033303   -0.102385   -0.113872
Cl  -6.760867   -0.373499   -3.018488
Cl  -7.760732   -2.578757    1.966149
H    6.721464   -4.254711   -1.319932
H   10.600007   -2.419910   -1.082701
H    7.598218    2.934710   -3.623293
H    8.241285    4.682855    0.246983
H    2.814917    1.355581    2.058913
H    5.478149   -1.110214    4.367499
H   10.174681   -6.422176   -4.603362
H   10.811801   -7.616335   -0.537130
H   11.051515    7.018991   -3.496732
H    6.910323    8.111811   -3.649479
H    5.526678    5.015622   -3.052345
H    5.681146    5.705221   -1.444158
H    5.237834    6.743455   -2.807530
H   10.833535    4.422784   -1.243213
H   10.638210    3.627931   -2.797485
H   11.763428    4.985390   -2.638716
H    9.565158    9.814470   -3.505085
H   10.318464    8.967537   -4.856514
H    8.604928    9.414774   -4.929749
H   10.313554   -4.573030    0.990212
H    8.709503   -5.289191    0.996227
H   10.130777   -6.312157    1.256543
H    7.910228   -3.888741   -4.063231
H    9.452656   -3.060134   -4.019992
H    9.200166   -4.392196   -5.158223
H   10.407008   -9.252971   -3.208605
H   11.650454   -8.355152   -4.079555
H   11.919736   -8.845943   -2.398090
H    4.514578    0.160700    6.035418
H    1.293175    0.015608    3.179161
H    2.904423    0.092934    7.900000
H   -1.293359   -0.016919    3.179055
H   -2.904899   -0.096194    7.899740
H   -4.515024   -0.163183    6.035005
H   -2.814917   -1.356443    2.058149
H   -5.478409    1.108442    4.367538
H   -6.721115    4.255176   -1.318944
H  -10.600007    2.420435   -1.082531
H   -7.598114   -2.933446   -3.625096
H   -8.241360   -4.682914    0.244654
H  -10.174003    6.424135   -4.601716
H   -7.910014    3.890453   -4.062121
H   -9.452261    3.061794   -4.019572
H   -9.199852    4.394109   -5.157252
H  -10.811559    7.616613   -0.535075
H  -10.313553    4.572591    0.991181
H   -8.709503    5.289191    0.997204
H  -10.130777    6.311628    1.258079
H  -11.051373   -7.014500   -3.503023
H  -10.833593   -4.420015   -1.249454
H  -10.638210   -3.625699   -2.804300
H  -11.763428   -4.982959   -2.645511
H   -6.910695   -8.111451   -3.651474
H   -5.526017   -5.016155   -3.051419
H   -5.681729   -5.705856   -1.443310
H   -5.238258   -6.744199   -2.806660
H  -10.406323    9.254346   -3.206143
H  -11.650058    8.356475   -4.077421
H  -11.919177    8.447543   -2.395632
H   -9.568658   -9.811854   -3.509176
H  -10.318464   -8.965419   -4.860647
H   -8.605457   -9.412128   -4.933871
H   -9.261899   -12.115454   -5.698305
H  -10.316417   -8.964520   -4.863777
H   -8.603780   -9.414838   -4.930722
H    0.927457   -1.256124    9.091321
H   -0.841595   -1.313936    9.093154
H    0.070732   -2.174913    7.849929
H   -0.928135    1.252358    9.091771
H    0.840534    1.310165    9.093761
H   -0.071274    2.171457    7.850756