112
MesPyBTM-PhPyBTM-Mes (Hattori, 2024)
Cl 5.125018 -3.464938 -1.408720
Cl 6.696938 0.059220 -2.284616
Cl 6.133088 0.786602 1.990815
Cl 9.427797 -1.367617 2.315070
N 8.307297 -5.750582 1.135407
C 3.300702 -1.790252 -0.406351
H 2.626075 -2.397454 -0.997462
C 5.101799 -0.216591 0.982948
C 9.209948 -0.448526 0.833267
C 7.415584 -5.125069 1.905064
H 7.022391 -5.671675 2.757649
C 7.480893 -3.066479 0.578003
C 10.173051 0.518412 0.568834
C 10.053960 1.359050 -0.542768
C 4.652341 -2.105413 -0.401699
C 6.987968 -3.819345 1.671686
C 7.987629 0.221943 -1.103029
C 8.941919 1.195836 -1.375232
C 3.752943 0.111278 0.984606
C 8.070888 -0.649741 0.012607
C 5.625970 -1.340241 0.292115
C 8.421283 -3.769511 -0.213877
C 8.797976 -5.075196 0.095317
C 7.057336 -1.682860 0.294043
H 9.517170 -5.587725 -0.537420
C 2.822080 -0.671604 0.288778
H 11.013976 0.626384 1.244146
C 1.381464 -0.328637 0.288202
C 0.954743 1.010022 0.288559
C 0.397604 -1.331708 0.287641
H 3.423572 0.957756 1.574698
H 8.824649 1.820391 -2.253318
Cl 5.883722 -3.137629 2.848860
Cl 9.102297 -3.086858 -1.676672
H 0.694390 -2.375674 0.306419
C -0.954759 -1.009947 0.288756
C -0.397620 1.331782 0.287288
C -1.381479 0.328712 0.288043
C -2.822095 0.671679 0.288453
C -3.300679 1.790151 -0.406986
C -3.752996 -0.111029 0.984426
H -2.626020 2.397204 -0.998212
C -4.652319 2.105312 -0.402488
C -5.101852 0.216838 0.982611
H -3.423657 -0.957358 1.574750
Cl -5.124943 3.464581 -1.409878
C -5.625985 1.340313 0.291465
Cl -6.133197 -0.786100 1.990673
C -7.057353 1.682933 0.293229
C -7.480924 3.066623 0.576823
C -8.070890 0.649743 0.011995
C -6.988058 3.819759 1.670348
C -8.421269 3.769461 -0.215283
C -9.209997 0.448735 0.832640
C -7.987569 -0.222222 -1.103417
C -7.415683 5.125543 1.903377
Cl -5.883880 3.138331 2.847752
C -8.797975 5.075225 0.093566
Cl -9.102205 3.086447 -1.677946
Cl -9.427929 1.368198 2.314201
C -10.173086 -0.518269 0.568396
Cl -6.696809 -0.059795 -2.284971
C -8.941844 -1.196182 -1.375430
N -8.307351 5.750867 1.133515
H -7.022536 5.672359 2.755849
H -9.517133 5.587599 -0.539337
C -10.053932 -1.359186 -0.542988
H -11.014047 -0.626073 1.243689
H -8.824526 -1.820956 -2.253354
H -1.689847 -1.808452 0.270329
H -0.694407 2.375753 0.305790
H 1.689832 1.808522 0.269975
C 11.087380 2.402529 -0.833807
C 10.991846 3.673920 -0.231716
C 12.156333 2.108491 -1.705230
C 11.970501 4.631474 -0.515857
C 13.112729 3.096562 -1.958715
C 13.037488 4.365339 -1.377957
H 11.895791 5.610992 -0.048904
H 13.939380 2.865822 -2.626918
C -11.087334 -2.402739 -0.833821
C -10.991751 -3.674024 -0.231520
C -12.156322 -2.108873 -1.705263
C -11.970394 -4.631651 -0.515471
C -13.112699 -3.097008 -1.958555
C -13.037410 -4.365688 -1.377584
H -11.895647 -5.611088 -0.048355
H -13.939374 -2.866401 -2.626774
C 12.285229 0.750838 -2.358886
H 12.316262 -0.055054 -1.617919
H 11.436781 0.536476 -3.018089
H 13.197102 0.693123 -2.958413
C 9.857796 4.013214 0.709522
H 8.881196 3.873553 0.233802
H 9.865305 3.375673 1.600471
H 9.925739 5.052264 1.041301
C 14.064942 5.426400 -1.693704
H 15.041363 4.985085 -1.914599
H 13.768885 6.015559 -2.570690
H 14.188511 6.124708 -0.860677
C -9.857667 -4.013133 0.709742
H -8.881085 -3.873597 0.233948
H -9.865123 -3.375394 1.600550
H -9.925614 -5.052109 1.041753
C -12.285265 -0.751333 -2.359145
H -12.316361 0.054678 -1.618310
H -11.436806 -0.537038 -3.018355
H -13.197122 -0.693761 -2.958709
C -14.064856 -5.426818 -1.693129
H -15.041426 -4.985584 -1.913531
H -13.769088 -6.015748 -2.570367
H -14.187990 -6.125314 -0.860198