66
TTM-TTM (Chang, 2024)
Cl               17.0     1.730023    2.505022    4.679187
Cl               17.0    -1.224888    1.680567    5.453585
Cl               17.0     0.082070    2.094559    7.044732
Cl               17.0     1.518987    0.809145    5.892138
Cl               17.0     0.434125    0.959188    4.110941
Cl               17.0    -0.139635    3.467256    5.475417
Cl               17.0    -0.665279   -0.933662    6.426475
Cl               17.0    -0.663941    3.168853    2.695181
C                6.0      0.914771    2.307840    5.869288
C                6.0      0.140245    2.221216    4.775605
C                6.0      0.398463    1.918329    5.441610
C                6.0      0.140248    1.226588    5.680753
C                6.0      2.019692    2.992145    5.977241
H                1.0      2.479799    3.204664    5.704403
C                6.0      1.324439    2.774181    7.016200
H                1.0      1.213832    2.827050    7.578571
C                6.0      1.530038    2.619315    5.574939
C                6.0     -0.589443    1.051794    5.686503
C                6.0      1.929420    3.079414    6.710041
C                6.0      0.603734    0.687209    5.919318
C                6.0      0.837127    2.403606    6.608852
C                6.0     -0.841311    0.396621    5.911306
H                1.0     -1.407660    0.290131    5.915326
C                6.0      0.111728    1.824421    4.139368
C                6.0     -0.359086   -0.112420    6.142512
C                6.0     -0.097133    2.931295    4.724255
C                6.0      0.365634    0.028578    6.148791
H                1.0      0.742785   -0.372104    6.320002
C                6.0     -0.132612    2.105869    3.503542
H                1.0     -0.136238    1.782717    3.026405
C                6.0     -0.341973    3.226194    4.094770
H                1.0     -0.527112    3.771828    4.083417
C                6.0     -0.358267    2.808605    3.486121
Cl               17.0     2.650454    4.051309    9.173595
Cl               17.0     5.605327    4.875848    8.398935
Cl               17.0     4.298327    4.461912    6.807923
Cl               17.0     2.861427    5.747256    7.960621
Cl               17.0     3.946350    5.597141    9.741786
Cl               17.0     4.519912    3.089151    8.377156
Cl               17.0     5.045649    7.490117    7.426282
Cl               17.0     5.044514    3.387425   11.157393
C                6.0      3.465668    4.248545    7.983424
C                6.0      4.240232    4.335171    9.077038
C                6.0      3.981983    4.638059    8.410996
C                6.0      4.240178    5.329801    8.172855
C                6.0      2.360761    3.564197    7.875313
H                1.0      1.900657    3.351673    8.148151
C                6.0      3.055981    3.782194    6.836302
H                1.0      3.166587    3.729407    6.273919
C                6.0      2.850529    3.937021    8.277609
C                6.0      4.969871    5.504595    8.166068
C                6.0      2.451022    3.476928    7.142517
C                6.0      3.776674    5.869212    7.933391
C                6.0      3.543284    4.152848    7.243851
C                6.0      5.221719    6.159844    7.941324
H                1.0      5.788078    6.266291    7.937290
C                6.0      4.268754    4.731908    9.713437
C                6.0      4.739462    6.668817    7.710103
C                6.0      4.477696    3.625070    9.128362
C                6.0      4.014833    6.527814    7.703845
H                1.0      3.637682    6.928810    7.532631
C                6.0      4.513149    4.450410   10.349079
H                1.0      4.516788    4.773361   10.826225
C                6.0      4.722495    3.330138    9.757833
H                1.0      4.907455    2.784518    9.769150
C                6.0      4.738814    3.747712   10.366436
