86
TTM-Ph-Ph-TTM (Mesto, 2025)
Cl -7.97238 0.81456 2.60175
C -7.16083 0.40230 1.12321
C -7.91023 0.00001 0.00001
C -7.16084 -0.40227 -1.12320
Cl -7.97241 -0.81455 -2.60173
C -5.77214 -0.40773 -1.13061
H -5.25472 -0.69239 -2.04641
C -5.05538 0.00003 -0.00001
C -5.77213 0.40778 1.13060
H -5.25471 0.69244 2.04640
C 9.38090 -0.00001 0.00002
C 10.11758 -1.19869 0.43306
C 9.86806 -1.81805 1.67359
Cl 8.73302 -1.11465 2.77889
C 10.55255 -2.95262 2.09528
C 11.52727 -3.49557 1.26417
Cl 12.39251 -4.90565 1.77459
C 11.81759 -2.92380 0.02946
C 11.11164 -1.79377 -0.36826
Cl 11.42999 -1.17244 -1.95505
C 10.11760 1.19866 -0.43302
C 11.11157 1.79383 0.36836
Cl 11.42976 1.17267 1.95525
C 11.81754 2.92384 -0.02937
C 11.52734 3.49552 -1.26415
Cl 12.39261 4.90558 -1.77458
C 10.55273 2.95248 -2.09532
C 9.86821 1.81793 -1.67362
Cl 8.73333 1.11442 -2.77902
C -9.38028 -0.00000 0.00002
C -10.11720 -1.20976 -0.39979
C -9.86618 -2.46372 0.19143
Cl -8.72779 -2.59555 1.49196
C -10.55150 -3.61600 -0.17749
C -11.52766 -3.52923 -1.16494
Cl -12.39288 -4.95356 -1.63459
C -11.81936 -2.31638 -1.78088
C -11.11359 -1.18202 -1.39528
Cl -11.43695 0.28773 -2.25560
C -10.11722 1.20976 0.39980
C -11.11364 1.18201 1.39526
Cl -11.43703 -0.28775 2.25555
C -11.81943 2.31637 1.78084
C -11.52771 3.52922 1.16491
Cl -12.39294 4.95355 1.63454
C -10.55151 3.61599 0.17750
C -9.86618 2.46371 -0.19140
Cl -8.72773 2.59554 -1.49188
H 10.33856 -3.39237 3.06777
H 12.56869 -3.36021 -0.62652
H 12.56855 3.36032 0.62667
H 10.33883 3.39216 -3.06788
H -10.33681 -4.56273 0.31462
H -12.57189 2.25379 2.56486
H -10.33680 4.56273 -0.31460
H -12.57180 -2.25381 -2.56493
C 5.77269 -1.01507 -0.64343
C 7.16135 -1.00673 -0.64024
C 7.91055 0.00000 -0.00000
C 7.16136 1.00674 0.64022
C 5.77269 1.01510 0.64340
C 5.05577 0.00002 -0.00002
H 5.25560 -1.80112 -1.19298
Cl 7.97398 -2.23897 -1.55433
Cl 7.97399 2.23898 1.55430
H 5.25560 1.80116 1.19294
C 2.85327 1.20157 -0.05076
C 1.46313 1.20116 -0.05075
C 0.74164 0.00003 -0.00003
C 1.46312 -1.20110 0.05070
C 2.85326 -1.20153 0.05072
C 3.57333 0.00002 -0.00002
H 3.38913 2.14937 -0.12619
H 0.92666 2.14861 -0.12556
H 0.92664 -2.14855 0.12551
H 3.38912 -2.14933 0.12615
C -1.46301 -0.99190 -0.67928
C -2.85318 -0.99128 -0.68107
C -3.57291 0.00003 -0.00001
C -2.85317 0.99135 0.68104
C -1.46301 0.99196 0.67923
C -0.74167 0.00003 -0.00002
H -0.92612 -1.76646 -1.22963
H -3.38970 -1.78388 -1.20561
H -3.38970 1.78394 1.20558
H -0.92611 1.76653 1.22959