96
(Arnold, 2025)
N          0.25337        3.91378        0.51584
C         -0.57977        2.79739        0.61183
C         -0.23115        1.46432        0.36463
C         -1.20157        0.48491        0.50327
C         -2.49375        0.86577        0.88364
C         -2.89146        2.21561        1.06996
C         -1.89742        3.21824        0.93119
C         -1.84937        4.66259        1.02437
C         -2.77783        5.67131        1.32206
C         -2.37142        6.99940        1.36629
C         -1.03418        7.35020        1.13366
C         -0.08408        6.38032        0.83552
C         -0.50560        5.05134        0.76591
N         -3.59752        0.02837        1.05915
C         -4.30983        2.18364        1.35936
C         -5.28948        3.14807        1.63932
C         -6.59392        2.75478        1.91280
C         -6.94709        1.39808        1.93099
C         -6.00645        0.41274        1.65424
C         -4.70500        0.81717        1.35060
C         -0.78292       -8.25813        1.05767
C         -1.92890       -7.52942        1.35197
C         -2.36990       -6.43254        0.57295
C         -1.55171       -6.11653       -0.53807
C         -0.39758       -6.82174       -0.85687
C         -0.02439       -7.89485       -0.05220
C         -6.81491       -6.78561        2.58716
C         -7.21699       -7.82395        1.75204
C         -6.46800       -8.17560        0.63197
C         -5.30265       -7.47000        0.35886
C         -4.83187       -6.40874        1.16893
C         -5.64173       -6.10323        2.28924
C         -3.57675       -4.22772        0.90606
C         -2.59888       -3.48612        1.61144
C         -2.59839       -2.10099        1.67545
C         -3.58329       -1.37368        0.99876
C         -4.55863       -2.05908        0.26751
C         -4.55057       -3.44559        0.24046
C         -3.59103       -5.68853        0.88101
Cl        -5.74075       -4.21519       -0.76928
Cl        -1.40169       -4.31370        2.56473
Cl        -4.46103       -7.89095       -1.10360
Cl        -5.12952       -4.90108        3.43758
Cl        -8.67006       -8.69554        2.11421
Cl         1.40359       -8.79573       -0.44077
Cl        -2.78109       -7.96942        2.80259
Cl        -2.03021       -4.86381       -1.64602
C          8.40247        0.93821       -0.19682
C          7.74943        2.14747        0.00743
C          6.55577        2.50521       -0.66346
C          6.05939        1.53410       -1.56596
C          6.68767        0.31544       -1.79259
C          7.86145        0.02856       -1.10162
C          7.31566        7.18674        0.51583
C          8.21216        7.40320       -0.52685
C          8.35581        6.47550       -1.55502
C          7.58650        5.31841       -1.52329
C          6.66684        5.02864       -0.48722
C          6.56730        6.01584        0.52225
C          4.45108        3.83089       -0.19408
C          3.82116        2.98921        0.75426
C          2.45704        3.01340        1.00027
C          1.63658        3.88649        0.27898
C          2.20881        4.73615       -0.67295
C          3.57944        4.70655       -0.88482
C          5.88850        3.79010       -0.44885
Cl         4.19704        5.71910       -2.15827
Cl         4.77972        1.95068        1.76870
Cl         7.72678        4.24876       -2.88730
Cl         5.55514        5.74577        1.91076
Cl         9.16468        8.85022       -0.54442
Cl         8.66109       -1.48537       -1.36810
Cl         8.41948        3.19918        1.21899
Cl         4.65620        1.87931       -2.53404
H          0.77920        1.19524        0.05416
H         -0.96052       -0.55932        0.30046
H         -3.81834        5.43177        1.52923
H         -3.10344        7.77734        1.59061
H         -0.72969        8.39734        1.18845
H          0.96006        6.65171        0.67213
H         -5.04513        4.20782        1.64739
H         -7.35098        3.51358        2.11897
H         -7.97287        1.10780        2.16732
H         -6.27917       -0.64338        1.68337
H         -0.47960       -9.08672        1.69540
H          0.18591       -6.55165       -1.73544
H         -7.39147       -6.52478        3.47302
H         -6.79460       -8.97550       -0.03031
H         -1.85588       -1.58915        2.28653
H         -5.30331       -1.51295       -0.31016
H          9.30714        0.70094        0.36026
H          6.27691       -0.38886       -2.51406
H          7.21536        7.90676        1.32617
H          9.04235        6.65733       -2.38015
H          2.03734        2.37923        1.78039
H          1.58167        5.38826       -1.28012