96
PCzPyBTM2 (Mizuno, 2024)
Cl    3.2703  14.5615  11.9170 
Cl   -0.4257  14.9742  16.7978 
Cl   -0.9482  14.1695  13.3071 
Cl    4.8208  14.7803  15.4081 
Cl    2.7287  17.9021  14.9304 
Cl    9.8092   9.0654   4.1467 
Cl    6.3328   7.0143   2.5027 
Cl    6.7649  12.8743   1.6879 
Cl    9.5380   9.5570   0.3629 
Cl   11.5645  14.0776   3.7018 
Cl    4.2822  10.2475   1.6970 
Cl    5.7543   9.6215  -3.3812 
Cl   -2.0015  19.3543  12.9404 
Cl    3.3890  15.4466  20.5083 
N      5.1756   7.7934   4.6841
N      2.3384  12.1683  12.2032
N      1.9534   6.3477   9.9059
C      4.8254   8.6553   5.6572
C      4.0229   8.0644   6.7510
C      2.2165  15.0239  16.1436
C      5.2529   9.9851   5.6048
H      4.9861  10.6011   6.2770
C      3.5891   8.8008   7.8572
H      3.7631   9.7331   7.9107
C      2.8987   8.1539   8.8809
C      1.7326  11.1372  12.8343
C      1.6832   9.8663  12.0771
C      2.6524   6.7695   8.7860
C      1.8760  13.6290  14.0692
C      2.3244   8.5832  10.1421
C      6.4500   9.5062   3.5605
C      1.0469   8.7245  12.6056
H      0.5873   8.7948  13.4339
C      1.7322   7.4410  10.7315
C      2.4010  13.3248  12.8161
C      0.8708  16.0421  14.1967
C      1.6017  15.1843  18.5093
H      0.9267  15.2286  19.1761
C      2.3090   9.7872  10.8327
H      2.7236  10.5558  10.4586
C      1.9399  15.0328  14.6395
H      2.7835  15.4031  14.2508
C      1.0720   7.5058  11.9540
H      0.6531   6.7396  12.3280
C     -0.3760  15.7794  13.6087
C      1.6847   4.9791  10.2160
C      3.7460   6.6773   6.6927
H      4.0351   6.1838   5.9342
C      1.2707  15.0762  17.1643
C      8.3583  10.9816   2.8401
C      1.2484  11.2986  14.1313
H      0.8665  10.5623  14.5946
C      6.9154   9.8918   1.0082
C      1.3277  12.5369  14.7385
H      1.0033  12.6454  15.6249
C      3.0735   6.0195   7.6950
H      2.9031   5.0863   7.6437
C      6.0675  10.3961   4.5659
H      6.3709  11.2958   4.5359
C      0.3769   4.5299  10.2771
H     -0.3442   5.1358  10.1527
C      0.1286   3.1880  10.5214
H     -0.7659   2.8700  10.5537
C      0.3194  18.4358  13.9597
H      0.5653  19.3453  14.0802
C      3.5530  14.9804  16.5731
C     -1.2611  16.7830  13.2338
H     -2.1019  16.5639  12.8505
C     10.4892  11.6236   3.8698
H     11.2636  11.3827   4.3644
C      5.9416   8.2225   3.7091
C      1.1792   2.3120  10.7184
H      1.0053   1.3945  10.8937
C      7.4310   9.8388   2.4517
H      8.0407   9.0462   2.4446
C      3.9312  15.0925  17.9007
H      4.8474  15.0781  18.1504
C      9.5155  10.6869   3.5818
C      9.1651  13.2911   2.7570
H      9.0352  14.1930   2.4881
C      1.1797  17.4087  14.3171
C      8.2062  12.3239   2.4878
C      2.4841   2.7697  10.6603
H      3.2045   2.1656  10.7989
C      2.7453   4.1077  10.4002
H      3.6401   4.4220  10.3492
C     -0.9039  18.0966  13.4245
C     10.3124  12.9109   3.4245
C      7.8457   9.7216  -0.0204
C      2.9385  15.2255  18.8506
C      7.5226   9.6591  -1.3624
H      8.1970   9.5576  -2.0239
C      5.2170   9.9164  -0.7580
H      4.3032   9.9798  -1.0093
C      6.1898   9.7487  -1.7125
C      5.5858   9.9924   0.5827