100
pseudo-o-PCP-TTM2 (++) (triplet) E = -9587.972432935101 Eh (Schoneburg, 2026)
C   -7.08408745269384      1.13174802633437      0.41912299623805
C   -6.77032106830767     -0.19087155788542      0.13865477151345
C   -5.89039935635018     -0.52519868052264     -0.88784321246669
C   -5.57419335777907      0.48881133350031     -1.81471291099866
C   -5.91480342450044      1.82038402223726     -1.53179981717896
C   -6.53119239612972      2.16706911816016     -0.33779522653340
C   -3.32974238419195      2.07123622749604      0.05196091076030
C   -3.00156859544649      0.73233659686836     -0.21043714352702
C   -3.52680177525034     -0.30022933932912      0.55350477824709
C   -4.12378725170168      0.04434522298345      1.76817621440407
C   -4.43756070549131      1.36702728247939      2.04834162578678
C   -4.18287107533360      2.38279987520055      1.13008650553500
C   -6.32700502328792      3.54288892033496      0.23979727770461
C   -5.00653331358393      3.64250962988043      1.14313108462134
C   -5.10847015532501     -1.80994886264430     -0.82994169079239
C   -3.71200915527280     -1.66482237259270     -0.05624965120212
C   -2.95735151426121      3.03773391889583     -0.91330189811006
C   -2.63956391929552      3.79117029346103     -1.80387840024118
C   -4.73437515200073      0.25040895304515     -2.92925403564967
C   -3.98637412298857      0.13683686990471     -3.87227779802445
C   -2.22964212537268      4.61843354740198     -2.87396595431860
C   -1.36135329185912      4.11723234568358     -3.85357715697272
C   -0.94002413993917      4.92694971846881     -4.88712514586312
C   -1.36147568745957      6.26863723814452     -5.03408361113071
C   -2.24433913370092      6.73245830994469     -4.03257199206895
C   -2.66654263495505      5.94472370269386     -2.98136391584031
C   -0.90978449120566      7.10872359574142     -6.13359323203635
C   -0.42265293715162      8.46179490028743     -5.87537997230453
C   -0.93507306311247      6.59407286762836     -7.50366749474142
C   0.52035322012635      8.74249942749628     -4.86331852055164
C   0.99641390984026     10.01768755068339     -4.61085675256039
C   0.53709028923540     11.07140547671244     -5.38504009639594
C   -0.38727230054535     10.86209889044929     -6.39604144208699
C   -0.85183061534067      9.57796780769568     -6.62403356853147
C   -2.08365543391066      5.99472127116724     -8.05931356247601
C   -2.12590802849160      5.51053692191123     -9.35633321882093
C   -0.99295881871006      5.61536643811447    -10.14742283097277
C   0.16759318254414      6.19493058257862     -9.66029461738741
C   0.18206218054929      6.67141943510676     -8.36050401493643
Cl  -2.93324239075510      8.33086871725002     -4.12890177043906
Cl  0.25475904350735      4.25388872859572     -5.95729918529925
Cl  -2.08852859557596      9.41324219794305     -7.83758184792173
Cl  1.12866311028757     12.67712251420827     -5.08390635322768
Cl  1.22415359890669      7.46024306110840     -3.91999376033168
Cl  1.69730156639856      7.30032559916996     -7.78328169683517
Cl  -1.03011377886949      5.01359998376638    -11.77664222239438
Cl  -3.56744175029985      5.91489521956570     -7.15515324896631
C   -3.12890787542644      0.07269444879642     -4.99387139684536
C   -2.97397950480319      1.19346919647725     -5.82117059710381
C   -2.16108927908380      1.12800955069571     -6.93300506495632
C   -1.43485376949285     -0.03210170810289     -7.28767672989279
C   -1.60648109378820     -1.13489395904685     -6.42046310948831
C   -2.42704500516529     -1.09681347651093     -5.31186829558091
C   -0.67380839698112     -1.21282857785127     -9.39105836482021
C   0.36241343158483      1.00023481301488     -8.73331229873989
C   -1.90994898903553     -1.69062658978457     -9.87728006195518
C   -2.01240989494604     -2.75629357522118    -10.75498275021959
C   -0.85494163813677     -3.38472455029284    -11.18631599287177
C   0.39010025262411     -2.96133334633125    -10.74941950707539
C   0.46464571384642     -1.89703287031724     -9.86707144860974
C   0.43876966282031      1.64492804486576     -9.98468155403138
C   1.33553947937502      2.66550627182831    -10.25137733477334
C   2.19859733480650      3.07659917945105     -9.24824840270534
C   2.17316064638503      2.48377927889655     -7.99584132477125
C   1.26626376326619      1.46455433239282     -7.75645433150304
Cl  -0.69822509513083     -2.60291929606891     -6.66285370600310
Cl  -2.16496135398651      2.52139243372899     -7.97411345504781
Cl  2.05398718388508     -1.49629923730602     -9.28155711784452
Cl  -0.96641876534773     -4.72208359564123    -12.28999871308999
Cl  -3.39969255005589     -0.88961796813169     -9.46646803936764
Cl  1.35585359545969      0.69828016298408     -6.19762226281676
Cl  3.33562574672331      4.35088154937216     -9.56704605042095
Cl  -0.67741003523558      1.24152582689411    -11.25590505599742
H   -7.64616877565111      1.36431070585780      1.31585544470445
H   -7.09510497710282     -0.96553839900984      0.82295361899037
H   -5.53125788607809      2.59333032118929     -2.18415956727442
H   -2.47106646277189      0.50857471240849     -1.12621225589155
H   -4.47300324174246     -0.73570476551198      2.43430528864305
H   -5.02607614933828      1.59327652137399      2.92942827783851
H   -7.17825987999295      3.83397209911244      0.85643202948815
H   -6.24329049913755      4.27283937213527     -0.56528953777119
H   -5.31094520714620      3.86110718705262      2.16679154451279
H   -4.42088444925564      4.49003439215354      0.78844190185159
H   -4.89896984610425     -2.17910145546650     -1.83337111417081
H   -5.70220910008571     -2.56866477491921     -0.31989977954582
H   -2.90900572670081     -1.86475679707373     -0.76564343619795
H   -3.67047306165977     -2.43974280182024      0.71012630440012
H   -0.99304226641796      3.10480822132187     -3.78255754724227
H   -3.35074772608269      6.34967554947830     -2.25093046392771
H   1.73072199316290     10.17938428445994     -3.83677368756340
H   -0.75903115191472     11.68642874867715     -6.98498920006788
H   -3.03359901784299      5.07506960891995     -9.74493886606485
H   1.05575257234823      6.25497013704544    -10.26925401850049
H   -3.51913133519291      2.10109138917799     -5.60965352727539
H   -2.51243232221774     -1.96784363483060     -4.67967225971708
H   -2.97994921304302     -3.07436851918348    -11.11171017141366
H   1.34051521170957      3.14376738693152    -11.21808267766634
H   2.85922426525136      2.79415602828884     -7.22283634677734
C   -0.58298422985711     -0.08504063271663     -8.46664979529925
H   1.28939523375592     -3.46390275117041    -11.07078438620105