110
PyBTM-(Hex2Ph)PyBTM (Hattori, 2024)
Cl -5.739452 -1.387046 2.918862
Cl -6.480121 2.395707 2.120103
Cl -5.820563 1.122163 -2.015395
Cl -9.505972 -0.235568 -1.692691
N -9.380645 -3.836420 1.298057
C -3.599080 -0.738615 1.453613
H -3.063983 -1.165078 2.293616
C -5.024316 0.438384 -0.606861
C -9.072770 1.152968 -0.713815
C -8.381512 -3.796967 0.415589
H -8.130222 -4.722602 -0.094606
C -7.971708 -1.405055 0.752187
C -9.794772 2.315009 -0.963737
C -9.454248 3.478308 -0.281730
C -4.987558 -0.727312 1.474885
C -7.671538 -2.635305 0.117753
C -7.709003 2.309949 0.872477
C -8.411428 3.487415 0.638488
C -3.634511 0.438084 -0.637173
C -8.000131 1.088174 0.212581
C -5.773801 -0.146376 0.445583
C -9.035855 -1.493199 1.682704
C -9.697073 -2.697825 1.916013
C -7.246413 -0.152713 0.469922
H -10.504950 -2.732065 2.641527
C -2.895787 -0.160357 0.389664
H -10.594289 2.312320 -1.693124
C -1.404960 -0.125199 0.365965
C -0.777929 1.128282 0.352494
C -0.610675 -1.292119 0.351086
H -3.124807 0.881746 -1.484226
H -8.158754 4.388281 1.182389
Cl -6.458810 -2.763285 -1.140679
Cl -9.531597 -0.128416 2.662332
Cl -10.349150 4.949803 -0.585666
C 0.777928 -1.128283 0.352493
C 0.610674 1.292117 0.351088
C 1.404960 0.125197 0.365965
C 2.895786 0.160355 0.389664
C 3.599079 0.738616 1.453612
C 3.634510 -0.438088 -0.637171
H 3.063983 1.165080 2.293615
C 4.987557 0.727313 1.474884
C 5.024315 -0.438388 -0.606859
H 3.124806 -0.881752 -1.484223
Cl 5.739451 1.387051 2.918859
C 5.773800 0.146374 0.445583
Cl 5.820562 -1.122170 -2.015391
C 7.246412 0.152712 0.469921
C 7.971705 1.405056 0.752185
C 8.000133 -1.088173 0.212581
C 7.671530 2.635306 0.117752
C 9.035856 1.493203 1.682698
C 9.072768 -1.152968 -0.713818
C 7.709009 -2.309947 0.872483
C 8.381503 3.796970 0.415585
Cl 6.458797 2.763283 -1.140676
C 9.697071 2.697831 1.916005
Cl 9.531604 0.128420 2.662324
Cl 9.505963 0.235565 -1.692701
C 9.794773 -2.315009 -0.963738
Cl 6.480132 -2.395704 2.120114
C 8.411437 -3.487413 0.638496
N 9.380638 3.836425 1.298050
H 8.130208 4.722605 -0.094609
H 10.504950 2.732073 2.641516
C 9.454254 -3.478306 -0.281726
H 10.594286 -2.312320 -1.693128
H 8.158767 -4.388277 1.182401
Cl 10.349158 -4.949800 -0.585660
H 1.403790 -2.017248 0.356708
H -1.403791 2.017247 0.356710
C -1.184832 -2.690971 0.242680
H -0.471461 -3.401779 0.676545
H -2.105557 -2.784254 0.825503
C -1.479933 -3.102731 -1.214673
H -2.182768 -2.384125 -1.655825
H -0.555409 -3.026271 -1.802387
C 1.184830 2.690970 0.242682
H 0.471458 3.401777 0.676546
H 2.105555 2.784253 0.825506
C 1.479933 3.102729 -1.214672
H 2.182769 2.384123 -1.655822
H 0.555410 3.026269 -1.802386
C 2.054093 4.519296 -1.331948
H 1.356074 5.234295 -0.873287
H 2.982530 4.582724 -0.747149
C 2.336675 4.943464 -2.778305
H 3.033089 4.227339 -3.237406
H 1.408476 4.880395 -3.364230
C 2.915448 6.358590 -2.899508
H 2.219934 7.074067 -2.439993
H 3.843234 6.420164 -2.314831
C 3.194903 6.775366 -4.346475
H 3.914522 6.099138 -4.821712
H 2.279127 6.757339 -4.948284
H 3.606696 7.788373 -4.399050
C -2.054093 -4.519299 -1.331950
H -1.356074 -5.234297 -0.873288
H -2.982531 -4.582726 -0.747152
C -2.336673 -4.943467 -2.778307
H -3.033086 -4.227342 -3.237409
H -1.408473 -4.880397 -3.364231
C -2.915445 -6.358592 -2.899511
H -2.219932 -7.074069 -2.439995
H -3.843232 -6.420167 -2.314835
C -3.194899 -6.775369 -4.346478
H -3.914517 -6.099141 -4.821716
H -2.279122 -6.757342 -4.948285
H -3.606691 -7.788376 -4.399054