
                                 *****************
                                 * O   R   C   A *
                                 *****************

                                            #,                                       
                                            ###                                      
                                            ####                                     
                                            #####                                    
                                            ######                                   
                                           ########,                                 
                                     ,,################,,,,,                         
                               ,,#################################,,                 
                          ,,##########################################,,             
                       ,#########################################, ''#####,          
                    ,#############################################,,   '####,        
                  ,##################################################,,,,####,       
                ,###########''''           ''''###############################       
              ,#####''   ,,,,##########,,,,          '''####'''          '####       
            ,##' ,,,,###########################,,,                        '##       
           ' ,,###''''                  '''############,,,                           
         ,,##''                                '''############,,,,        ,,,,,,###''
      ,#''                                            '''#######################'''  
     '                                                          ''''####''''         
             ,#######,   #######,   ,#######,      ##                                
            ,#'     '#,  ##    ##  ,#'     '#,    #''#        ,####,    ,#,          
            ##       ##  ##   ,#'  ##            #'  '#       #'       ,# #          
            ##       ##  #######   ##           ,######,      #####,      #          
            '#,     ,#'  ##    ##  '#,     ,#' ,#      #,     #,   #      #          
             '#######'   ##     ##  '#######'  #'      '#     '####' #    #          



                #########################################################
                #                        -***-                          #
                #          Department of theory and spectroscopy        #
                #                                                       #
                #                      Frank Neese                      #
                #                                                       #
                #     Directorship, Architecture, Infrastructure        #
                #                    SHARK, DRIVERS                     #
                #        Core code/Algorithms in most modules           #
                #                                                       #
                #        Max Planck Institute fuer Kohlenforschung      #
                #                Kaiser Wilhelm Platz 1                 #
                #                 D-45470 Muelheim/Ruhr                 #
                #                      Germany                          #
                #                                                       #
                #                  All rights reserved                  #
                #                        -***-                          #
                #########################################################


                         Program Version 6.1.1  -  RELEASE   -
                                (GIT: $487d211c$)
                          ($2025-11-21 10:33:24 +0100$)


 With contributions from (in alphabetic order):
[Max-Planck-Institut fuer Kohlenforschung]                               
  Daniel Aravena         : Magnetic Suceptibility                        
  Michael Atanasov       : Ab Initio Ligand Field Theory (pilot matlab implementation)
  Alexander A. Auer      : GIAO ZORA, VPT2 properties, NMR spectrum      
  Ute Becker             : All parallelization in ORCA, NUMFREQ, NUMCALC 
  Giovanni Bistoni       : ED, misc. LED, open-shell LED, HFLD           
  Dmytro Bykov           : pre 5.0 version of the SCF Hessian            
  Marcos Casanova-Páez   : Triplet and SCS-CIS(D). UHF-(DLPNO)-IP/EA/STEOM-CCSD. UHF-CVS-IP/STEOM-CCSD   
  Vijay G. Chilkuri      : MRCI spin determinant printing, contributions to CSF-ICE 
  Pauline Colinet        : FMM embedding                                 
  Dipayan Datta          : RHF DLPNO-CCSD density                        
  Achintya Kumar Dutta   : EOM-CC, STEOM-CC                              
  Nicolas Foglia         : Exact transition moments, OPA infrastructure, MCD improvements    
  Dmitry Ganyushin       : Spin-Orbit,Spin-Spin,Magnetic field MRCI      
  Miquel Garcia-Rates    : C-PCM and meta-GGA Hessian, CCSD/C-PCM, Gaussian charge scheme 
  Tiago L. C. Gouveia    : GS-ROHF, GS-ROCIS                             
  Yang Guo               : DLPNO-NEVPT2, F12-NEVPT2, CIM, IAO-localization        
  Andreas Hansen         : Spin unrestricted coupled pair/coupled cluster methods 
  Ingolf Harden          : AUTO-CI MPn and infrastructure                
  Benjamin Helmich-Paris : MC-RPA, TRAH-(SCF,CASSCF), AVAS, COSX integrals, SCF dyn. polar., MC-PDFT, srDFT 
  Lee Huntington         : MR-EOM, pCC                                   
  Robert Izsak           : Overlap fitted RIJCOSX, COSX-SCS-MP3, EOM     
  Riya Kayal             : Wick's Theorem for AUTO-CI, AUTO-CI UHF-CCSDT 
  Emily Kempfer          : AUTO-CI RHF CISDT and CCSDT, approximate NEVPT4
  Christian Kollmar      : KDIIS, OOCD, Brueckner-CCSD(T), CCSD density, CASPT2, CASPT2-K, improved NEVPT2 
  Axel Koslowski         : Symmetry handling                             
  Simone Kossmann        : meta-GGA functionals, TD-DFT gradient, OOMP2, (MP2 Hessian; deprecated post 5.0) 
  Lucas Lang             : DCDCAS, Hyperfine gauge corrections, ICE-SOC+SSC
  Marvin Lechner         : AUTO-CI (C++ implementation), FIC-MRCC        
  Spencer Leger          : CASSCF response                               
  Dagmar Lenk            : GEPOL surface, SMD, ORCA-2-JSON               
  Dimitrios Liakos       : Extrapolation schemes; Compound Job, Property file
  Dimitrios Manganas     : Further ROCIS development; embedding schemes. LFT, Crystal Embedding 
  Dimitrios Pantazis     : SARC Basis sets                               
  Anastasios Papadopoulos: AUTO-CI, single reference methods and gradients 
  Taras Petrenko         : pre 6.0 DFT Hessian and TD-DFT gradient,  ECA, NRVS 
  Petra Pikulova         : Analytic Raman intensities                    
  Peter Pinski           : DLPNO-MP2, DLPNO-MP2 Gradient                 
  Shashank Vittal Rao    : ES-AILFT, MagRelax                            
  Christoph Reimann      : Effective Core Potentials                     
  Marius Retegan         : Local ZFS, SOC                                
  Christoph Riplinger    : Optimizer, TS searches, QM/MM, DLPNO-CCSD(T), (RO)-DLPNO pert. Triples 
  Michael Roemelt        : Original ROCIS implementation, recursive CI coupling coefficients
  Masaaki Saitow         : Open-shell DLPNO-CCSD energy and density      
  Barbara Sandhoefer     : DKH picture change effects                    
  Yorick L. A. Schmerwitz: GMF and freeze-and-release deltaSCF, NEB S-IDPP initial path                    
  Kantharuban Sivalingam : CASSCF convergence/infrastructure, NEVPT2, NEVPT3, NEVPT4(SD), FIC-MRCI and CEPA variants
  Bernardo de Souza      : ESD, SOC TD-DFT                               
  Georgi L. Stoychev     : AutoAux, RI-MP2 NMR, DLPNO-MP2 response, X2C  
  Van Anh Tran           : RI-MP2 g-tensors                              
  Willem Van den Heuvel  : Paramagnetic NMR                              
  Zikuan Wang            : NOTCH, Electric field optimization            
  Frank Wennmohs         : Technical directorship and infrastructure     
  Hang Xu                : AUTO-CI-Response properties                   
                                                                         
[FACCTs GmbH]                                                            
  Markus Bursch, Nicolas Foglia, Miquel Garcia-Rates, Ingolf Harden, Hagen Neugebauer, Anastasios Papadopoulos, 
  Christoph Riplinger, Bernardo de Souza, Georgi L. Stoychev                                                    
                                                                 
  APM, various basis sets, CI-OPT, improved COSX, DLPNO-Multilevel,           
  DOCKER, DRACO, updates on ESD, Fragmentator, GOAT, IRC, LR-CPCM, L-BFGS, MBIS, meta-GGA TD-DFT gradient, ML-optimized integration grids, 
  MM, NACMEs, nearIR, NEB, NEB-TS, NL-DFT gradient (VV10), 2- and 3-layer-ONIOM, interface openCOSMO-RS, QMMM,   
  Crystal-QMMM, RESP, rigid body optimization, SF, symmetry and pop. for TD-DFT, various functionals, SOLVATOR                                   
                                                                         
[Other institutions]                                                     
  V. Asgeirsson          : NEB                                           
  Christoph Bannwarth    : sTDA-DFT, sTD-DFT, PBEh-3c, B97-3c, D3        
  Giovanni Bistoni       : ETS/NOCV, ADLD/ADEX, COVALED                  
  Martin Brehm           : Molecular dynamics                            
  Ronald Cardenas        : ETS/NOCV                                      
  Martina Colucci        : COVALED                                       
  Sebastian Ehlert       : rSCAN, r2SCAN, r2SCAN-3c, D4, dhf basis sets  
  Marvin Friede          : D4 for Fr, Ra, Ac-Lr                          
  Lars Goerigk           : TD-DFT with DH, B97 family of functionals     
  Stefan Grimme          : VdW corrections, initial TS optimization, DFT functionals, gCP, sTDA/sTD-DF 
  Waldemar Hujo          : DFT-NL                                        
  H. Jonsson             : NEB                                           
  Holger Kruse           : gCP                                           
  Marcel Mueller         : wB97X-3c, vDZP basis set                      
  Hagen Neugebauer       : wr2SCAN, Native XTB                           
  Gianluca Regni         : ADLD/ADEX                                     
  Tobias Risthaus        : pre 6.0 range-separated hybrid DFT and stability analysis
  Lukas Wittmann         : regularized MP2, r2SCAN double-hybrids, wr2SCAN        
                                                                         
We gratefully acknowledge several colleagues who have allowed us to      
interface, adapt or use parts of their codes:                            
  Ed Valeev, F. Pavosevic, A. Kumar             : LibInt (2-el integral package), F12 methods 
  Garnet Chan, S. Sharma, J. Yang, R. Olivares  : DMRG                   
  Ulf Ekstrom                                   : XCFun DFT Library      
  Mihaly Kallay                                 : mrcc  (arbitrary order and MRCC methods)
  Frank Weinhold                                : gennbo (NPA and NBO analysis)           
  Simon Mueller                                 : openCOSMO-RS                            
  Christopher J. Cramer and Donald G. Truhlar   : smd solvation model                     
  S Lehtola, MJT Oliveira, MAL Marques          : LibXC Library                           
  Liviu Ungur et al                             : ANISO software                          


 Your calculation uses the libint2 library for the computation of 2-el integrals
 For citations please refer to: http://libint.valeyev.net

 Your ORCA version has been built with support for libXC version: 7.0.0
 For citations please refer to: https://libxc.gitlab.io

 This ORCA versions uses:
   CBLAS   interface :  Fast vector & matrix operations
   LAPACKE interface :  Fast linear algebra routines
   SCALAPACK package :  Parallel linear algebra routines
   Shared memory     :  Shared parallel matrices
   BLAS/LAPACK       :  OpenBLAS 0.3.29  USE64BITINT DYNAMIC_ARCH NO_AFFINITY Cooperlake SINGLE_THREADED
        Core in use  :  Cooperlake
   Copyright (c) 2011-2014, The OpenBLAS Project


  ***********************************
  * Starting time: Thu May  7 19:01:49 2026
  * Host name:     cs-n0145
  * Process ID:    1189764
  * Working dir.:  /mnt/lustre/e1000/home/ec293/ec293/iitprince/joey_project/pbe0/NEW
  ***********************************

NOTE: MaxCore=20000 MB was set to SCF,MP2,MDCI,CIPSI,MRCI,RASCI and CIS
      => If you want to overwrite this, your respective input block should be placed after the MaxCore statement


***************************************
The coordinates will be read from file: TPA-Me.xyz
***************************************


Your calculation utilizes the atom-pairwise dispersion correction
based on EEQ partial charges (D4)


Warning: RI is on but no J-basis has been assigned. Assigning Def2/J (nothing to worry about!)
================================================================================

----- Orbital basis set information -----
Your calculation utilizes the basis: 6-31G(d,p)
   H-He, Li-Ne : W. J. Hehre, R. Ditchfield and J.A. Pople, J. Chem. Phys. 56, 2257 (1972).
                 Note: He and Ne are unpublished basis sets taken from the Gaussian program.
                 Note: Li and B from J. D. Dill and J. A. Pople, J. Chem. Phys. 62, 2921 (1975).
   Na - Ar     : M. M. Francl, W. J. Pietro, W. J. Hehre, J. S. Binkley, M. S. Gordon, 
                 D. J. DeFrees and J. A. Pople, J. Chem. Phys. 77, 3654 (1982).
   K - Zn      : V. A. Rassolov, J. A. Pople, M. A. Ratner, and T. L. Windus, J. Chem. Phys. 109, 1223 (1998).

----- AuxJ basis set information -----
Your calculation utilizes the auxiliary basis: def2/J
   H-Rn: F. Weigend, Phys. Chem. Chem. Phys. 8, 1057 (2006).
   Fr-Lr: K. Eichkorn, F. Weigend, O. Treutler, R. Ahlrichs; Theor. Chem. Acc. 97, 119 (1997).

================================================================================
                                        WARNINGS
                       Please study these warnings very carefully!
================================================================================


WARNING: CIS/ROCIS methods need fully converged wavefunctions
  ===> : Setting SCFConvForced true
         You can overwrite this default with %scf ConvForced false 


================================================================================
                                       INPUT FILE
================================================================================
NAME = TPA-Me.inp
|  1> ! UKS PBE0 6-31G(d,p) RIJCOSX D4 TightSCF
|  2> %PAL NPROCS 24 END
|  3> 
|  4> %tddft
|  5>  Nroots 50
|  6> end
|  7> 
|  8> %scf
|  9>  MaxIter 1500
| 10>  FlipSpin 25
| 11>  FinalMs 0
| 12> end
| 13> 
| 14> %Maxcore 20000
| 15> 
| 16> *xyzfile 0 1 TPA-Me.xyz
| 17> 
| 18>                          ****END OF INPUT****
================================================================================

                       ****************************
                       * Single Point Calculation *
                       ****************************

---------------------------------
CARTESIAN COORDINATES (ANGSTROEM)
---------------------------------
  C      2.502219    1.264893   -0.889148
  C      3.635022    1.688424   -0.170206
  C      3.521366    2.868201    0.588890
  C      2.333283    3.581337    0.641787
  C      1.203933    3.148488   -0.077123
  C      1.312940    1.978993   -0.851880
  N     -0.000895    3.886873   -0.038020
  C     -1.259031    3.243898   -0.067792
  C      0.054695    5.315106    0.027245
  C     -0.683950    6.011296    0.992491
  C     -0.634704    7.402656    1.042604
  C      0.160618    8.138198    0.153641
  C      0.897803    7.427661   -0.803695
  C      0.844728    6.037815   -0.876384
  C     -2.342226    3.826037   -0.750979
  C     -3.583429    3.205578   -0.767159
  C     -3.798928    1.978899   -0.112954
  C     -2.707522    1.400289    0.562292
  C     -1.466923    2.018771    0.593311
  C      4.910833    0.949844   -0.192808
  N      5.969599    1.542489    0.398678
  C      7.130314    0.938914    0.422208
  C      7.426906   -0.343241   -0.128057
  C      6.296527   -0.937851   -0.743565
  C      5.059630   -0.313270   -0.781851
  C      8.749004   -0.971846   -0.071441
  C      9.501474   -1.008553    1.196584
  C      9.328175   -1.576321   -1.286625
  C      9.874283   -2.885578   -1.307506
  C     10.429600   -3.463153   -2.444788
  C     10.450983   -2.733272   -3.628427
  C      9.929426   -1.444975   -3.681531
  C      9.385427   -0.890200   -2.527689
  C     10.862529   -0.620103    1.292830
  C     11.584562   -0.657577    2.481250
  C     10.950548   -1.090127    3.641029
  C      9.616630   -1.483557    3.620475
  C      8.920831   -1.441384    2.416940
  Cl     6.369631   -2.554990   -1.412367
  Cl     8.844643    0.772420   -2.670748
  Cl     9.800021   -3.920356    0.106835
  Cl     8.418318    1.903055    1.146873
  Cl    11.717669    0.035408   -0.091027
  Cl     7.276271   -2.050668    2.473440
  Cl    11.142173   -3.445004   -5.069584
  Cl    11.842443   -1.140413    5.145337
  C     -5.106149    1.297133   -0.114177
  N     -5.148592    0.058278    0.420150
  C     -6.278186   -0.600984    0.459461
  C     -7.541745   -0.140505   -0.016172
  C     -7.463530    1.160683   -0.573779
  C     -6.275963    1.873454   -0.628102
  C     -8.777557   -0.923936    0.054891
  C     -9.157896   -1.601056    1.308789
  C     -9.648795   -1.031866   -1.131192
  C    -11.046497   -0.793650   -1.081573
  C    -11.878989   -0.899843   -2.191087
  C    -11.324628   -1.250250   -3.417505
  C     -9.960853   -1.494465   -3.540138
  C     -9.152956   -1.386550   -2.412870
  C     -9.555224   -2.962171    1.355949
  C     -9.924047   -3.609133    2.530896
  C     -9.900844   -2.899066    3.726495
  C     -9.518727   -1.561974    3.754686
  C     -9.160688   -0.938982    2.563895
  Cl    -8.894736    1.994142   -1.144302
  Cl    -7.467013   -1.810129   -2.647790
  Cl   -11.820107   -0.246955    0.394724
  Cl    -6.124064   -2.237923    1.099480
  Cl    -9.517731   -3.967099   -0.080887
  Cl    -8.791067    0.772058    2.688040
  Cl   -12.355842   -1.384797   -4.824485
  Cl   -10.358363   -3.697709    5.214286
  C      0.241984    9.643993    0.240169
  H      2.545770    0.380969   -1.517632
  H      4.383929    3.208516    1.150455
  H      2.269580    4.479074    1.247341
  H      0.463370    1.639815   -1.434740
  H     -1.297477    5.459256    1.697980
  H     -1.217730    7.925674    1.797152
  H      1.514928    7.971412   -1.515295
  H      1.413028    5.506953   -1.634043
  H     -2.200746    4.763694   -1.277461
  H     -4.383379    3.681756   -1.325320
  H     -2.857489    0.459207    1.079091
  H     -0.650238    1.559662    1.140285
  H      4.224600   -0.832529   -1.233211
  H     10.818664   -4.472962   -2.407515
  H      9.962002   -0.869963   -4.598462
  H     12.617607   -0.333712    2.500548
  H      9.127682   -1.836846    4.519657
  H     -6.285643    2.876394   -1.033786
  H    -12.937600   -0.691703   -2.098923
  H     -9.531896   -1.784731   -4.491039
  H    -10.203353   -4.655103    2.511281
  H     -9.517009   -1.004164    4.682720
  H     -0.678178   10.072764    0.650690
  H      1.067485    9.961330    0.891434
  H      0.415442   10.093318   -0.743504

----------------------------
CARTESIAN COORDINATES (A.U.)
----------------------------
  NO LB      ZA    FRAG     MASS         X           Y           Z
   0 C     6.0000    0    12.011    4.728509    2.390301   -1.680246
   1 C     6.0000    0    12.011    6.869196    3.190659   -0.321643
   2 C     6.0000    0    12.011    6.654417    5.420114    1.112841
   3 C     6.0000    0    12.011    4.409266    6.767746    1.212802
   4 C     6.0000    0    12.011    2.275104    5.949780   -0.145741
   5 C     6.0000    0    12.011    2.481097    3.739755   -1.609820
   6 N     7.0000    0    14.007   -0.001691    7.345125   -0.071847
   7 C     6.0000    0    12.011   -2.379224    6.130079   -0.128108
   8 C     6.0000    0    12.011    0.103359   10.044095    0.051486
   9 C     6.0000    0    12.011   -1.292478   11.359703    1.875536
  10 C     6.0000    0    12.011   -1.199417   13.988993    1.970236
  11 C     6.0000    0    12.011    0.303524   15.378965    0.290339
  12 C     6.0000    0    12.011    1.696602   14.036245   -1.518763
  13 C     6.0000    0    12.011    1.596305   11.409817   -1.656126
  14 C     6.0000    0    12.011   -4.426166    7.230162   -1.419145
  15 C     6.0000    0    12.011   -6.771699    6.057665   -1.449720
  16 C     6.0000    0    12.011   -7.178934    3.739577   -0.213452
  17 C     6.0000    0    12.011   -5.116475    2.646163    1.062578
  18 C     6.0000    0    12.011   -2.772083    3.814924    1.121195
  19 C     6.0000    0    12.011    9.280129    1.794945   -0.364354
  20 N     7.0000    0    14.007   11.280907    2.914882    0.753392
  21 C     6.0000    0    12.011   13.474341    1.774290    0.797857
  22 C     6.0000    0    12.011   14.034818   -0.648631   -0.241993
  23 C     6.0000    0    12.011   11.898712   -1.772282   -1.405134
  24 C     6.0000    0    12.011    9.561315   -0.591995   -1.477484
  25 C     6.0000    0    12.011   16.533222   -1.836523   -0.135004
  26 C     6.0000    0    12.011   17.955184   -1.905889    2.261216
  27 C     6.0000    0    12.011   17.627696   -2.978815   -2.431369
  28 C     6.0000    0    12.011   18.659691   -5.452952   -2.470828
  29 C     6.0000    0    12.011   19.709088   -6.544411   -4.619980
  30 C     6.0000    0    12.011   19.749496   -5.165136   -6.856733
  31 C     6.0000    0    12.011   18.763896   -2.730607   -6.957085
  32 C     6.0000    0    12.011   17.735887   -1.682234   -4.776640
  33 C     6.0000    0    12.011   20.527205   -1.171825    2.443095
  34 C     6.0000    0    12.011   21.891650   -1.242640    4.688883
  35 C     6.0000    0    12.011   20.693537   -2.060041    6.880548
  36 C     6.0000    0    12.011   18.172797   -2.803516    6.841706
  37 C     6.0000    0    12.011   16.857927   -2.723821    4.567355
  38 Cl   17.0000    0    35.453   12.036858   -4.828231   -2.668987
  39 Cl   17.0000    0    35.453   16.713953    1.459662   -5.046982
  40 Cl   17.0000    0    35.453   18.519356   -7.408399    0.201889
  41 Cl   17.0000    0    35.453   15.908316    3.596253    2.167276
  42 Cl   17.0000    0    35.453   22.143185    0.066911   -0.172016
  43 Cl   17.0000    0    35.453   13.750159   -3.875201    4.674124
  44 Cl   17.0000    0    35.453   21.055656   -6.510114   -9.580125
  45 Cl   17.0000    0    35.453   22.378974   -2.155068    9.723278
  46 C     6.0000    0    12.011   -9.649223    2.451226   -0.215763
  47 N     7.0000    0    14.007   -9.729429    0.110129    0.793968
  48 C     6.0000    0    12.011  -11.864052   -1.135695    0.868255
  49 C     6.0000    0    12.011  -14.251833   -0.265516   -0.030561
  50 C     6.0000    0    12.011  -14.104028    2.193373   -1.084285
  51 C     6.0000    0    12.011  -11.859851    3.540315   -1.186941
  52 C     6.0000    0    12.011  -16.587179   -1.745986    0.103729
  53 C     6.0000    0    12.011  -17.305915   -3.025557    2.473253
  54 C     6.0000    0    12.011  -18.233580   -1.949944   -2.137643
  55 C     6.0000    0    12.011  -20.874854   -1.499781   -2.043877
  56 C     6.0000    0    12.011  -22.448036   -1.700457   -4.140554
  57 C     6.0000    0    12.011  -21.400445   -2.362630   -6.458149
  58 C     6.0000    0    12.011  -18.823284   -2.824130   -6.689891
  59 C     6.0000    0    12.011  -17.296580   -2.620200   -4.559663
  60 C     6.0000    0    12.011  -18.056757   -5.597692    2.562372
  61 C     6.0000    0    12.011  -18.753731   -6.820273    4.782700
  62 C     6.0000    0    12.011  -18.709884   -5.478441    7.042055
  63 C     6.0000    0    12.011  -17.987787   -2.951703    7.095328
  64 C     6.0000    0    12.011  -17.311192   -1.774419    4.845059
  65 Cl   17.0000    0    35.453  -16.808615    3.768382   -2.162417
  66 Cl   17.0000    0    35.453  -14.110610   -3.420648   -5.003598
  67 Cl   17.0000    0    35.453  -22.336765   -0.466677    0.745920
  68 Cl   17.0000    0    35.453  -11.572804   -4.229062    2.077716
  69 Cl   17.0000    0    35.453  -17.985905   -7.496731   -0.152854
  70 Cl   17.0000    0    35.453  -16.612709    1.458978    5.079659
  71 Cl   17.0000    0    35.453  -23.349158   -2.616887   -9.116955
  72 Cl   17.0000    0    35.453  -19.574469   -6.987657    9.853573
  73 C     6.0000    0    12.011    0.457283   18.224506    0.453854
  74 H     1.0000    0     1.008    4.810808    0.719927   -2.867909
  75 H     1.0000    0     1.008    8.284425    6.063217    2.174045
  76 H     1.0000    0     1.008    4.288885    8.464223    2.357133
  77 H     1.0000    0     1.008    0.875642    3.098801   -2.711266
  78 H     1.0000    0     1.008   -2.451876   10.316499    3.208717
  79 H     1.0000    0     1.008   -2.301176   14.977353    3.396125
  80 H     1.0000    0     1.008    2.862799   15.063786   -2.863493
  81 H     1.0000    0     1.008    2.670236   10.406633   -3.087894
  82 H     1.0000    0     1.008   -4.158807    9.002077   -2.414051
  83 H     1.0000    0     1.008   -8.283386    6.957511   -2.504492
  84 H     1.0000    0     1.008   -5.399872    0.867775    2.039186
  85 H     1.0000    0     1.008   -1.228772    2.947334    2.154826
  86 H     1.0000    0     1.008    7.983337   -1.573252   -2.330431
  87 H     1.0000    0     1.008   20.444312   -8.452673   -4.549544
  88 H     1.0000    0     1.008   18.825456   -1.643992   -8.689834
  89 H     1.0000    0     1.008   23.843822   -0.630624    4.725351
  90 H     1.0000    0     1.008   17.248819   -3.471136    8.540914
  91 H     1.0000    0     1.008  -11.878144    5.435597   -1.953572
  92 H     1.0000    0     1.008  -24.448521   -1.307129   -3.966390
  93 H     1.0000    0     1.008  -18.012673   -3.372653   -8.486834
  94 H     1.0000    0     1.008  -19.281543   -8.796870    4.745633
  95 H     1.0000    0     1.008  -17.984541   -1.897595    8.849058
  96 H     1.0000    0     1.008   -1.281571   19.034765    1.229626
  97 H     1.0000    0     1.008    2.017254   18.824186    1.684566
  98 H     1.0000    0     1.008    0.785072   19.073607   -1.405019

--------------------------------
INTERNAL COORDINATES (ANGSTROEM)
--------------------------------
 C      0   0   0     0.000000000000     0.00000000     0.00000000
 C      1   0   0     1.406946603157     0.00000000     0.00000000
 C      2   1   0     1.407486480674   117.57461659     0.00000000
 C      3   2   1     1.386687514184   121.38798822     0.75806304
 C      4   3   2     1.406990144742   120.66433364   359.41025218
 C      1   2   3     1.387700347217   121.42585903   359.84636929
 N      5   4   3     1.413630773016   120.61628049   180.92824495
 C      7   5   4     1.413226597933   121.36799332   215.23159622
 C      7   5   4     1.430803714915   119.31048486    35.50432918
 C      9   7   5     1.400705819450   120.46953214   230.31845878
 C     10   9   7     1.393132847536   120.16838676   180.58584576
 C     11  10   9     1.401361599594   121.42969004   359.03144823
 C     12  11  10     1.401712085091   117.75318940     0.72905053
 C     13  12  11     1.392757175556   121.42959187     0.11042569
 C      8   7   5     1.406748627266   120.49437011   216.05141242
 C     15   8   7     1.387737745502   120.61963370   180.84909855
 C     16  15   8     1.406828123854   121.42838639   359.63234828
 C     17  16  15     1.407804584966   117.55904702     0.03565547
 C     18  17  16     1.386566998557   121.40219965     0.52376509
 C      2   1   3     1.474349000246   122.55387758   180.20465887
 N     20   2   1     1.349840445007   116.87721814   171.90735089
 C     21  20   2     1.308478411266   120.07565617   179.58424172
 C     22  21  20     1.426422037377   126.30873184   359.73488514
 C     23  22  21     1.417803877060   112.25120604     0.35896634
 C     24  23  22     1.386175108695   122.30585979   359.82571304
 C     23  22  21     1.465023118959   123.94612505   180.03163586
 C     26  23  22     1.474939288708   120.28496289    47.40788768
 C     26  23  22     1.475635871996   119.87697856   227.13527096
 C     28  26  23     1.418740235517   122.76703491   229.53778573
 C     29  28  26     1.391179427190   123.28562954   180.37030292
 C     30  29  28     1.390749721974   118.94731334   359.69197045
 C     31  30  29     1.390881339034   120.85269711     0.10741894
 C     32  31  30     1.391064906318   118.97139908     0.16128063
 C     27  26  23     1.418671000634   122.74910720   228.82784689
 C     34  27  26     1.391070828594   123.26768189   180.37547998
 C     35  34  27     1.390741019578   118.95980991   359.71970659
 C     36  35  34     1.390879887891   120.85486954     0.14393121
 C     37  36  35     1.390831156739   118.94684961     0.13455730
 Cl    24  23  22     1.751507595000   121.31258258   183.68586634
 Cl    33  32  31     1.754200238438   115.52504252   176.36422825
 Cl    29  28  26     1.754035580657   121.08113809     4.02911790
 Cl    22  21  20     1.764557036234   113.75623091   176.42064241
 Cl    34  27  26     1.753858399977   121.10332736     4.03522914
 Cl    38  37  36     1.754707051407   115.49805640   176.35042463
 Cl    31  30  29     1.749639835673   119.57821462   180.13705728
 Cl    36  35  34     1.749556495711   119.57543030   180.13000893
 C     17  16  15     1.474324630916   122.59136908   180.03086150
 N     47  17  16     1.349840161724   116.86922593   172.83427835
 C     48  47  17     1.308493157873   120.09556270   179.56626607
 C     49  48  47     1.426481337632   126.30067939   359.72481747
 C     50  49  48     1.417791720958   112.24257988     0.40410393
 C     51  50  49     1.386112862021   122.31745259   359.80668146
 C     50  49  48     1.464938695330   123.94770324   180.04605203
 C     53  50  49     1.474926928266   120.28429315    47.40194610
 C     53  50  49     1.475634582284   119.88066182   227.14962814
 C     55  53  50     1.418724705015   122.77042914   229.51636252
 C     56  55  53     1.391165410549   123.28715422   180.38477437
 C     57  56  55     1.390756015516   118.94725098   359.68694252
 C     58  57  56     1.390885354563   120.85211986     0.11222843
 C     59  58  57     1.391070218809   118.97210649     0.16066847
 C     54  53  50     1.418706329164   122.74702669   228.82468896
 C     61  54  53     1.391075370921   123.26639279   180.41505005
 C     62  61  54     1.390751772423   118.96238520   359.71094143
 C     63  62  61     1.390907312021   120.85163776     0.13423543
 C     64  63  62     1.390789043409   118.94571787     0.14628992
 Cl    51  50  49     1.751713735930   121.31115380   183.64168334
 Cl    60  59  58     1.754140922187   115.52694259   176.35355895
 Cl    56  55  53     1.754081151867   121.08217025     4.04206205
 Cl    49  48  47     1.764354613156   113.76184047   176.41429666
 Cl    61  54  53     1.753791236473   121.09919825     4.08271039
 Cl    65  64  63     1.754904426533   115.49279543   176.34477896
 Cl    58  57  56     1.749599362541   119.57658067   180.14497644
 Cl    63  62  61     1.749478875692   119.58077680   180.12569994
 C     12  11  10     1.510472145644   121.16363156   181.87156267
 H      1   2   3     1.085454036628   120.57743698   177.87541199
 H      3   2   1     1.084059259182   118.57240223   179.90442281
 H      4   3   2     1.084751326477   119.81629747   179.05094961
 H      6   1   2     1.084682755548   119.72958766   178.61244159
 H     10   9   7     1.085761608480   119.54028768     0.34652960
 H     11  10   9     1.087570608882   119.09765432   179.80154972
 H     13  12  11     1.087604236672   119.46186633   179.25881260
 H     14  13  12     1.085737773740   120.29106153   179.16970294
 H     15   8   7     1.084619996300   119.54091551     1.45909782
 H     16  15   8     1.085453449995   117.97010006   181.29371038
 H     18  17  16     1.084069480344   118.56800456   179.48903855
 H     19  18  17     1.084866821219   119.73971480   178.64687257
 H     25  24  23     1.081956958285   118.94318532   182.26818872
 H     30  29  28     1.082808519133   120.16324735   180.94580318
 H     32  31  30     1.082803054429   120.85875833   178.89645612
 H     35  34  27     1.082794035380   120.15686933   181.00593160
 H     37  36  35     1.082779540511   120.87019880   178.91640197
 H     52  51  50     1.081925068503   118.92813684   182.14193177
 H     57  56  55     1.082808252562   120.16449530   180.93487451
 H     59  58  57     1.082807079034   120.85903253   178.88516737
 H     62  61  54     1.082797225135   120.15580656   181.00682886
 H     64  63  62     1.082775162617   120.86668039   178.93258133
 H     74  12  11     1.095020624521   111.50374315   331.38564885
 H     74  12  11     1.098317245970   111.25327029    91.04034635
 H     74  12  11     1.095259423296   111.47264776   210.58607085

---------------------------
INTERNAL COORDINATES (A.U.)
---------------------------
 C      0   0   0     0.000000000000     0.00000000     0.00000000
 C      1   0   0     2.658743765017     0.00000000     0.00000000
 C      2   1   0     2.659763985671   117.57461659     0.00000000
 C      3   2   1     2.620459635136   121.38798822     0.75806304
 C      4   3   2     2.658826046689   120.66433364   359.41025218
 C      1   2   3     2.622373612187   121.42585903   359.84636929
 N      5   4   3     2.671375015484   120.61628049   180.92824495
 C      7   5   4     2.670611235266   121.36799332   215.23159622
 C      7   5   4     2.703827172586   119.31048486    35.50432918
 C      9   7   5     2.646950392950   120.46953214   230.31845878
 C     10   9   7     2.632639550014   120.16838676   180.58584576
 C     11  10   9     2.648189637827   121.42969004   359.03144823
 C     12  11  10     2.648851959430   117.75318940     0.72905053
 C     13  12  11     2.631929632854   121.42959187     0.11042569
 C      8   7   5     2.658369644803   120.49437011   216.05141242
 C     15   8   7     2.622444284703   120.61963370   180.84909855
 C     16  15   8     2.658519871583   121.42838639   359.63234828
 C     17  16  15     2.660365115665   117.55904702     0.03565547
 C     18  17  16     2.620231893605   121.40219965     0.52376509
 C      2   1   3     2.786115836285   122.55387758   180.20465887
 N     20   2   1     2.550828765554   116.87721814   171.90735089
 C     21  20   2     2.472665849442   120.07565617   179.58424172
 C     22  21  20     2.695547002032   126.30873184   359.73488514
 C     23  22  21     2.679261039254   112.25120604     0.35896634
 C     24  23  22     2.619491329092   122.30585979   359.82571304
 C     23  22  21     2.768492474696   123.94612505   180.03163586
 C     26  23  22     2.787231319818   120.28496289    47.40788768
 C     26  23  22     2.788547671463   119.87697856   227.13527096
 C     28  26  23     2.681030500302   122.76703491   229.53778573
 C     29  28  26     2.628948120535   123.28562954   180.37030292
 C     30  29  28     2.628136095358   118.94731334   359.69197045
 C     31  30  29     2.628384815557   120.85269711     0.10741894
 C     32  31  30     2.628731707450   118.97139908     0.16128063
 C     27  26  23     2.680899665335   122.74910720   228.82784689
 C     34  27  26     2.628742898929   123.26768189   180.37547998
 C     35  34  27     2.628119650213   118.95980991   359.71970659
 C     36  35  34     2.628382073293   120.85486954     0.14393121
 C     37  36  35     2.628289984761   118.94684961     0.13455730
 Cl    24  23  22     3.309869676032   121.31258258   183.68586634
 Cl    33  32  31     3.314958034708   115.52504252   176.36422825
 Cl    29  28  26     3.314646876594   121.08113809     4.02911790
 Cl    22  21  20     3.334529546166   113.75623091   176.42064241
 Cl    34  27  26     3.314312053634   121.10332736     4.03522914
 Cl    38  37  36     3.315915772419   115.49805640   176.35042463
 Cl    31  30  29     3.306340122420   119.57821462   180.13705728
 Cl    36  35  34     3.306182632717   119.57543030   180.13000893
 C     17  16  15     2.786069784926   122.59136908   180.03086150
 N     47  17  16     2.550828230226   116.86922593   172.83427835
 C     48  47  17     2.472693716490   120.09556270   179.56626607
 C     49  48  47     2.695659063273   126.30067939   359.72481747
 C     50  49  48     2.679238067552   112.24257988     0.40410393
 C     51  50  49     2.619373699925   122.31745259   359.80668146
 C     50  49  48     2.768332937157   123.94770324   180.04605203
 C     53  50  49     2.787207961969   120.28429315    47.40194610
 C     53  50  49     2.788545234260   119.88066182   227.14962814
 C     55  53  50     2.681001151907   122.77042914   229.51636252
 C     56  55  53     2.628921632922   123.28715422   180.38477437
 C     57  56  55     2.628147988429   118.94725098   359.68694252
 C     58  57  56     2.628392403807   120.85211986     0.11222843
 C     59  58  57     2.628741746603   118.97210649     0.16066847
 C     54  53  50     2.680966426580   122.74702669   228.82468896
 C     61  54  53     2.628751482683   123.26639279   180.41505005
 C     62  61  54     2.628139970146   118.96238520   359.71094143
 C     63  62  61     2.628433897389   120.85163776     0.13423543
 C     64  63  62     2.628210402101   118.94571787     0.14628992
 Cl    51  50  49     3.310259225936   121.31115380   183.64168334
 Cl    60  59  58     3.314845943237   115.52694259   176.35355895
 Cl    56  55  53     3.314732993701   121.08217025     4.04206205
 Cl    49  48  47     3.334147021986   113.76184047   176.41429666
 Cl    61  54  53     3.314185133005   121.09919825     4.08271039
 Cl    65  64  63     3.316288757354   115.49279543   176.34477896
 Cl    58  57  56     3.306263639286   119.57658067   180.14497644
 Cl    63  62  61     3.306035952138   119.58077680   180.12569994
 C     12  11  10     2.854378688183   121.16363156   181.87156267
 H      1   2   3     2.051210860187   120.57743698   177.87541199
 H      3   2   1     2.048575112796   118.57240223   179.90442281
 H      4   3   2     2.049882930450   119.81629747   179.05094961
 H      6   1   2     2.049753350173   119.72958766   178.61244159
 H     10   9   7     2.051792086754   119.54028768     0.34652960
 H     11  10   9     2.055210602089   119.09765432   179.80154972
 H     13  12  11     2.055274149402   119.46186633   179.25881260
 H     14  13  12     2.051747045621   120.29106153   179.16970294
 H     15   8   7     2.049634752381   119.54091551     1.45909782
 H     16  15   8     2.051209751610   117.97010006   181.29371038
 H     18  17  16     2.048594427993   118.56800456   179.48903855
 H     19  18  17     2.050101183882   119.73971480   178.64687257
 H     25  24  23     2.044602339849   118.94318532   182.26818872
 H     30  29  28     2.046211556637   120.16324735   180.94580318
 H     32  31  30     2.046201229844   120.85875833   178.89645612
 H     35  34  27     2.046184186311   120.15686933   181.00593160
 H     37  36  35     2.046156794979   120.87019880   178.91640197
 H     52  51  50     2.044542076895   118.92813684   182.14193177
 H     57  56  55     2.046211052893   120.16449530   180.93487451
 H     59  58  57     2.046208835245   120.85903253   178.88516737
 H     62  61  54     2.046190214076   120.15580656   181.00682886
 H     64  63  62     2.046148521958   120.86668039   178.93258133
 H     74  12  11     2.069289091340   111.50374315   331.38564885
 H     74  12  11     2.075518803046   111.25327029    91.04034635
 H     74  12  11     2.069740355625   111.47264776   210.58607085

---------------------
BASIS SET INFORMATION
---------------------
There are 4 groups of distinct atoms

 Group   1 Type C   : 10s4p1d contracted to 3s2p1d pattern {631/31/1}
 Group   2 Type N   : 10s4p1d contracted to 3s2p1d pattern {631/31/1}
 Group   3 Type Cl  : 16s10p1d contracted to 4s3p1d pattern {6631/631/1}
 Group   4 Type H   : 4s1p contracted to 2s1p pattern {31/1}

Atom   0C    basis set group =>   1
Atom   1C    basis set group =>   1
Atom   2C    basis set group =>   1
Atom   3C    basis set group =>   1
Atom   4C    basis set group =>   1
Atom   5C    basis set group =>   1
Atom   6N    basis set group =>   2
Atom   7C    basis set group =>   1
Atom   8C    basis set group =>   1
Atom   9C    basis set group =>   1
Atom  10C    basis set group =>   1
Atom  11C    basis set group =>   1
Atom  12C    basis set group =>   1
Atom  13C    basis set group =>   1
Atom  14C    basis set group =>   1
Atom  15C    basis set group =>   1
Atom  16C    basis set group =>   1
Atom  17C    basis set group =>   1
Atom  18C    basis set group =>   1
Atom  19C    basis set group =>   1
Atom  20N    basis set group =>   2
Atom  21C    basis set group =>   1
Atom  22C    basis set group =>   1
Atom  23C    basis set group =>   1
Atom  24C    basis set group =>   1
Atom  25C    basis set group =>   1
Atom  26C    basis set group =>   1
Atom  27C    basis set group =>   1
Atom  28C    basis set group =>   1
Atom  29C    basis set group =>   1
Atom  30C    basis set group =>   1
Atom  31C    basis set group =>   1
Atom  32C    basis set group =>   1
Atom  33C    basis set group =>   1
Atom  34C    basis set group =>   1
Atom  35C    basis set group =>   1
Atom  36C    basis set group =>   1
Atom  37C    basis set group =>   1
Atom  38Cl   basis set group =>   3
Atom  39Cl   basis set group =>   3
Atom  40Cl   basis set group =>   3
Atom  41Cl   basis set group =>   3
Atom  42Cl   basis set group =>   3
Atom  43Cl   basis set group =>   3
Atom  44Cl   basis set group =>   3
Atom  45Cl   basis set group =>   3
Atom  46C    basis set group =>   1
Atom  47N    basis set group =>   2
Atom  48C    basis set group =>   1
Atom  49C    basis set group =>   1
Atom  50C    basis set group =>   1
Atom  51C    basis set group =>   1
Atom  52C    basis set group =>   1
Atom  53C    basis set group =>   1
Atom  54C    basis set group =>   1
Atom  55C    basis set group =>   1
Atom  56C    basis set group =>   1
Atom  57C    basis set group =>   1
Atom  58C    basis set group =>   1
Atom  59C    basis set group =>   1
Atom  60C    basis set group =>   1
Atom  61C    basis set group =>   1
Atom  62C    basis set group =>   1
Atom  63C    basis set group =>   1
Atom  64C    basis set group =>   1
Atom  65Cl   basis set group =>   3
Atom  66Cl   basis set group =>   3
Atom  67Cl   basis set group =>   3
Atom  68Cl   basis set group =>   3
Atom  69Cl   basis set group =>   3
Atom  70Cl   basis set group =>   3
Atom  71Cl   basis set group =>   3
Atom  72Cl   basis set group =>   3
Atom  73C    basis set group =>   1
Atom  74H    basis set group =>   4
Atom  75H    basis set group =>   4
Atom  76H    basis set group =>   4
Atom  77H    basis set group =>   4
Atom  78H    basis set group =>   4
Atom  79H    basis set group =>   4
Atom  80H    basis set group =>   4
Atom  81H    basis set group =>   4
Atom  82H    basis set group =>   4
Atom  83H    basis set group =>   4
Atom  84H    basis set group =>   4
Atom  85H    basis set group =>   4
Atom  86H    basis set group =>   4
Atom  87H    basis set group =>   4
Atom  88H    basis set group =>   4
Atom  89H    basis set group =>   4
Atom  90H    basis set group =>   4
Atom  91H    basis set group =>   4
Atom  92H    basis set group =>   4
Atom  93H    basis set group =>   4
Atom  94H    basis set group =>   4
Atom  95H    basis set group =>   4
Atom  96H    basis set group =>   4
Atom  97H    basis set group =>   4
Atom  98H    basis set group =>   4
---------------------------------
AUXILIARY/J BASIS SET INFORMATION
---------------------------------
There are 4 groups of distinct atoms

 Group   1 Type C   : 12s5p4d2f1g contracted to 6s4p3d1f1g pattern {711111/2111/211/2/1}
 Group   2 Type N   : 12s5p4d2f1g contracted to 6s4p3d1f1g pattern {711111/2111/211/2/1}
 Group   3 Type Cl  : 14s5p5d2f1g contracted to 8s4p3d1f1g pattern {71111111/2111/311/2/1}
 Group   4 Type H   : 5s2p1d contracted to 3s1p1d pattern {311/2/1}

Atom   0C    basis set group =>   1
Atom   1C    basis set group =>   1
Atom   2C    basis set group =>   1
Atom   3C    basis set group =>   1
Atom   4C    basis set group =>   1
Atom   5C    basis set group =>   1
Atom   6N    basis set group =>   2
Atom   7C    basis set group =>   1
Atom   8C    basis set group =>   1
Atom   9C    basis set group =>   1
Atom  10C    basis set group =>   1
Atom  11C    basis set group =>   1
Atom  12C    basis set group =>   1
Atom  13C    basis set group =>   1
Atom  14C    basis set group =>   1
Atom  15C    basis set group =>   1
Atom  16C    basis set group =>   1
Atom  17C    basis set group =>   1
Atom  18C    basis set group =>   1
Atom  19C    basis set group =>   1
Atom  20N    basis set group =>   2
Atom  21C    basis set group =>   1
Atom  22C    basis set group =>   1
Atom  23C    basis set group =>   1
Atom  24C    basis set group =>   1
Atom  25C    basis set group =>   1
Atom  26C    basis set group =>   1
Atom  27C    basis set group =>   1
Atom  28C    basis set group =>   1
Atom  29C    basis set group =>   1
Atom  30C    basis set group =>   1
Atom  31C    basis set group =>   1
Atom  32C    basis set group =>   1
Atom  33C    basis set group =>   1
Atom  34C    basis set group =>   1
Atom  35C    basis set group =>   1
Atom  36C    basis set group =>   1
Atom  37C    basis set group =>   1
Atom  38Cl   basis set group =>   3
Atom  39Cl   basis set group =>   3
Atom  40Cl   basis set group =>   3
Atom  41Cl   basis set group =>   3
Atom  42Cl   basis set group =>   3
Atom  43Cl   basis set group =>   3
Atom  44Cl   basis set group =>   3
Atom  45Cl   basis set group =>   3
Atom  46C    basis set group =>   1
Atom  47N    basis set group =>   2
Atom  48C    basis set group =>   1
Atom  49C    basis set group =>   1
Atom  50C    basis set group =>   1
Atom  51C    basis set group =>   1
Atom  52C    basis set group =>   1
Atom  53C    basis set group =>   1
Atom  54C    basis set group =>   1
Atom  55C    basis set group =>   1
Atom  56C    basis set group =>   1
Atom  57C    basis set group =>   1
Atom  58C    basis set group =>   1
Atom  59C    basis set group =>   1
Atom  60C    basis set group =>   1
Atom  61C    basis set group =>   1
Atom  62C    basis set group =>   1
Atom  63C    basis set group =>   1
Atom  64C    basis set group =>   1
Atom  65Cl   basis set group =>   3
Atom  66Cl   basis set group =>   3
Atom  67Cl   basis set group =>   3
Atom  68Cl   basis set group =>   3
Atom  69Cl   basis set group =>   3
Atom  70Cl   basis set group =>   3
Atom  71Cl   basis set group =>   3
Atom  72Cl   basis set group =>   3
Atom  73C    basis set group =>   1
Atom  74H    basis set group =>   4
Atom  75H    basis set group =>   4
Atom  76H    basis set group =>   4
Atom  77H    basis set group =>   4
Atom  78H    basis set group =>   4
Atom  79H    basis set group =>   4
Atom  80H    basis set group =>   4
Atom  81H    basis set group =>   4
Atom  82H    basis set group =>   4
Atom  83H    basis set group =>   4
Atom  84H    basis set group =>   4
Atom  85H    basis set group =>   4
Atom  86H    basis set group =>   4
Atom  87H    basis set group =>   4
Atom  88H    basis set group =>   4
Atom  89H    basis set group =>   4
Atom  90H    basis set group =>   4
Atom  91H    basis set group =>   4
Atom  92H    basis set group =>   4
Atom  93H    basis set group =>   4
Atom  94H    basis set group =>   4
Atom  95H    basis set group =>   4
Atom  96H    basis set group =>   4
Atom  97H    basis set group =>   4
Atom  98H    basis set group =>   4


           ************************************************************
           *        Program running with 24 parallel MPI-processes    *
           *              working on a common directory               *
           ************************************************************
------------------------------------------------------------------------------
                             ORCA STARTUP CALCULATIONS
                           -- RI-GTO INTEGRALS CHOSEN --
------------------------------------------------------------------------------
------------------------------------------------------------------------------
                   ___                                                        
                  /   \      - P O W E R E D   B Y -                         
                 /     \                                                     
                 |  |  |   _    _      __       _____    __    __             
                 |  |  |  | |  | |    /  \     |  _  \  |  |  /  |          
                  \  \/   | |  | |   /    \    | | | |  |  | /  /          
                 / \  \   | |__| |  /  /\  \   | |_| |  |  |/  /          
                |  |  |   |  __  | /  /__\  \  |    /   |      \           
                |  |  |   | |  | | |   __   |  |    \   |  |\   \          
                \     /   | |  | | |  |  |  |  | |\  \  |  | \   \       
                 \___/    |_|  |_| |__|  |__|  |_| \__\ |__|  \__/        
                                                                              
                      - O R C A' S   B I G   F R I E N D -                    
                                      &                                       
                       - I N T E G R A L  F E E D E R -                       
                                                                              
 v1 FN, 2020, v2 2021, v3 2022-2024                                           
------------------------------------------------------------------------------


----------------------
SHARK INTEGRAL PACKAGE
----------------------

Number of atoms                             ...     99
Number of basis functions                   ...   1225
Number of shells                            ...    551
Maximum angular momentum                    ...      2
Integral batch strategy                     ... SHARK/LIBINT Hybrid
RI-J (if used) integral strategy            ... SPLIT-RIJ (Revised 2003 algorithm where possible)
Printlevel                                  ...      1
Contraction scheme used                     ... SEGMENTED contraction
Prescreening option                         ... SCHWARTZ
   Thresh                                   ... 2.500e-11
   Tcut                                     ... 2.500e-12
   Tpresel                                  ... 2.500e-12 
Coulomb Range Separation                    ... NOT USED
Exchange Range Separation                   ... NOT USED
Multipole approximations                    ... NOT USED
Finite Nucleus Model                        ... NOT USED
CABS basis                                  ... NOT available
Auxiliary Coulomb fitting basis             ... AVAILABLE
   # of basis functions in Aux-J            ...   3933
   # of shells in Aux-J                     ...   1267
   Maximum angular momentum in Aux-J        ...      4
Auxiliary J/K fitting basis                 ... NOT available
Auxiliary Correlation fitting basis         ... NOT available
Auxiliary 'external' fitting basis          ... NOT available

Checking pre-screening integrals            ... done (  0.0 sec) Dimension = 551
   => SHARK Basis and OBASIS are compatible. Storing Pre-screening
Shell pair information
Shell pair cut-off parameter TPreSel        ...   2.5e-12
Total number of shell pairs                 ...    152076
Shell pairs after pre-screening             ...     42989
Total number of primitive shell pairs       ...   1020987
Primitive shell pairs kept                  ...    138249
          la=0 lb=0:  11206 shell pairs
          la=1 lb=0:  16200 shell pairs
          la=1 lb=1:   5958 shell pairs
          la=2 lb=0:   5074 shell pairs
          la=2 lb=1:   3904 shell pairs
          la=2 lb=2:    647 shell pairs

Checking whether 4 symmetric matrices of dimension 1225 fit in memory
:Max Core in MB      =  20000.00
 MB in use           =     63.06
 MB left             =  19936.94
 MB needed           =     22.92
 Data fit in memory  = YES
Calculating RI/J V-Matrix + Cholesky decomp.... done (  0.4 sec)
Calculating Nuclear repulsion               ... done (  0.0 sec) ENN=  14908.303589511690 Eh

Diagonalization of the overlap matrix:
Smallest eigenvalue                        ... 3.669e-04
Time for diagonalization                   ...    0.103 sec
Threshold for overlap eigenvalues          ... 1.000e-07
Number of eigenvalues below threshold      ... 0
Time for construction of square roots      ...    0.068 sec
Total time needed                          ...    0.180 sec

-------------------
DFT GRID GENERATION
-------------------

General Integration Accuracy     IntAcc      ... 4.388
Radial Grid Type                 RadialGrid  ... OptM3 with GC (2021)
Angular Grid (max. ang.)         AngularGrid ... 4 (Lebedev-302)
Angular grid pruning method      GridPruning ... 4 (adaptive)
Weight generation scheme         WeightScheme... mBecke (2022)
Basis function cutoff            BFCut       ... 1.0000e-11
Integration weight cutoff        WCut        ... 1.0000e-14
Partially contracted basis set               ... off
Rotationally invariant grid construction     ... off
Angular grids for H and He will be reduced by one unit

Total number of grid points                  ...   539752
Total number of batches                      ...     8480
Average number of points per batch           ...       63
Average number of grid points per atom       ...     5452

--------------------
COSX GRID GENERATION
--------------------

GRIDX 1
-------
General Integration Accuracy     IntAcc      ... 3.816
Radial Grid Type                 RadialGrid  ... OptM3 with GC (2021)
Angular Grid (max. ang.)         AngularGrid ... 1 (Lebedev-50)
Angular grid pruning method      GridPruning ... 4 (adaptive)
Weight generation scheme         WeightScheme... mBecke (2022)
Basis function cutoff            BFCut       ... 1.0000e-11
Integration weight cutoff        WCut        ... 1.0000e-14
Partially contracted basis set               ... on
Rotationally invariant grid construction     ... off
Angular grids for H and He will be reduced by one unit

Total number of grid points                  ...    84537
Total number of batches                      ...      716
Average number of points per batch           ...      118
Average number of grid points per atom       ...      854
UseSFitting                                  ... on

GRIDX 2
-------
General Integration Accuracy     IntAcc      ... 4.020
Radial Grid Type                 RadialGrid  ... OptM3 with GC (2021)
Angular Grid (max. ang.)         AngularGrid ... 2 (Lebedev-110)
Angular grid pruning method      GridPruning ... 4 (adaptive)
Weight generation scheme         WeightScheme... mBecke (2022)
Basis function cutoff            BFCut       ... 1.0000e-11
Integration weight cutoff        WCut        ... 1.0000e-14
Partially contracted basis set               ... on
Rotationally invariant grid construction     ... off
Angular grids for H and He will be reduced by one unit

Total number of grid points                  ...   148814
Total number of batches                      ...     1216
Average number of points per batch           ...      122
Average number of grid points per atom       ...     1503
UseSFitting                                  ... on

GRIDX 3
-------
General Integration Accuracy     IntAcc      ... 4.338
Radial Grid Type                 RadialGrid  ... OptM3 with GC (2021)
Angular Grid (max. ang.)         AngularGrid ... 3 (Lebedev-194)
Angular grid pruning method      GridPruning ... 4 (adaptive)
Weight generation scheme         WeightScheme... mBecke (2022)
Basis function cutoff            BFCut       ... 1.0000e-11
Integration weight cutoff        WCut        ... 1.0000e-14
Partially contracted basis set               ... on
Rotationally invariant grid construction     ... off
Angular grids for H and He will be reduced by one unit

Total number of grid points                  ...   334533
Total number of batches                      ...     2669
Average number of points per batch           ...      125
Average number of grid points per atom       ...     3379
UseSFitting                                  ... on
Grids setup in   4.1 sec
Initializing property integral containers    ... done (  0.0 sec)

SHARK setup successfully completed in   5.2 seconds

Maximum memory used throughout the entire STARTUP-calculation: 155.2 MB


           ************************************************************
           *        Program running with 24 parallel MPI-processes    *
           *              working on a common directory               *
           ************************************************************
-------------------------------------------------------------------------------
                                 ORCA GUESS
                   Start orbitals & Density for SCF / CASSCF
-------------------------------------------------------------------------------

------------
SCF SETTINGS
------------
Hamiltonian:
 Density Functional     Method          .... DFT(GTOs)
 Exchange Functional    Exchange        .... PBE
   PBE kappa parameter   XKappa         ....  0.804000
   PBE mue parameter    XMuePBE         ....  0.219520
 Correlation Functional Correlation     .... PBE
   PBE beta parameter  CBetaPBE         ....  0.066725
 LDA part of GGA corr.  LDAOpt          .... PW91-LDA
 Gradients option       PostSCFGGA      .... off
 Hybrid DFT is turned on
   Fraction HF Exchange ScalHFX         ....  0.250000
   Scaling of DF-GGA-X  ScalDFX         ....  0.750000
   Scaling of DF-GGA-C  ScalDFC         ....  1.000000
   Scaling of DF-LDA-C  ScalLDAC        ....  1.000000
   Perturbative correction              ....  0.000000
   NL short-range parameter             ....  6.900000
 RI-approximation to the Coulomb term is turned on
   Number of AuxJ basis functions       .... 3933
   RIJ-COSX (HFX calculated with COS-X)).... on


General Settings:
 Integral files         IntName         .... TPA-Me
 Hartree-Fock type      HFTyp           .... UHF
 Total Charge           Charge          ....    0
 Multiplicity           Mult            ....    1
 Number of Electrons    NEL             ....  648
 Basis Dimension        Dim             .... 1225
 Nuclear Repulsion      ENuc            ....  14908.3035895117 Eh

Convergence Acceleration:
 AO-DIIS                CNVDIIS         .... on
   Start iteration      DIISMaxIt       ....    12
   Startup error        DIISStart       ....  0.200000
   # of expansion vecs  DIISMaxEq       ....     5
   Bias factor          DIISBfac        ....   1.050
   Max. coefficient     DIISMaxC        ....  10.000
 MO-DIIS                CNVKDIIS        .... off
 Trust-Rad. Augm. Hess. CNVTRAH         .... auto
   Auto Start mean grad. ratio tolernc. ....  1.125000
   Auto Start start iteration           ....    50
   Auto Start num. interpolation iter.  ....    10
   Max. Number of Micro iterations      ....    24
   Max. Number of Macro iterations      .... Maxiter - #DIIS iter
   Number of Davidson start vectors     ....     2
   Converg. threshold    (grad. norm)   ....   1.000e-05
   Grad. Scal. Fac. for Micro threshold ....   0.100
   Minimum threshold for Micro iter.    ....   1.000e-02
   NR start threshold (gradient norm)   ....   1.000e-04
   Initial trust radius                 ....   0.400
   Minimum AH scaling param. (alpha)    ....   1.000
   Maximum AH scaling param. (alpha)    .... 1000.000
   Quad. conv. algorithm                .... NR
   White noise on init. David. guess    .... on
   Maximum white noise                  ....   0.010
   Pseudo random numbers                .... off
   Inactive MOs                         .... canonical
   Orbital update algorithm             .... Taylor
   Preconditioner                       .... Diag
   Full preconditioner red. dimension   ....   250
 SOSCF                 CNVSOSCF           .... on
   Start iteration     SOSCFMaxIt         ....   150
   Startup grad/error  SOSCFStart         ....  0.003300
   Hessian update      SOSCFHessUp        .... L-BFGS
   Autom. constraints  SOSCFAutoConstrain .... off
 Level Shifting         CNVShift        .... on
   Level shift para.    LevelShift      ....    0.2500
   Turn off err/grad.   ShiftErr        ....    0.0010
 Zerner damping         CNVZerner       .... off
 Static damping         CNVDamp         .... on
   Fraction old density DampFac         ....    0.7000
   Max. Damping (<1)    DampMax         ....    0.9800
   Min. Damping (>=0)   DampMin         ....    0.0000
   Turn off err/grad.   DampErr         ....    0.1000

SCF Procedure:
 Maximum # iterations   MaxIter         ....  1500
 SCF integral mode      SCFMode         .... Direct
   Integral package                     .... SHARK and LIBINT hybrid scheme
 Reset frequency        DirectResetFreq ....    20
 Integral Threshold     Thresh          ....  2.500e-11 Eh
 Primitive CutOff       TCut            ....  2.500e-12 Eh

Convergence Tolerance:
 Convergence Check Mode ConvCheckMode   .... Total+1el-Energy
 Convergence forced     ConvForced      .... 1
 Energy Change          TolE            ....  1.000e-08 Eh
 1-El. energy change                    ....  1.000e-05 Eh
 Orbital Gradient       TolG            ....  1.000e-05
 Orbital Rotation angle TolX            ....  1.000e-05
 DIIS Error             TolErr          ....  5.000e-07


The Flip-Spin feature is operative for generating broken symmetry solutions
List of atoms to flip:
 C 25
We will now do a high-spin calculation with                 Ms=  0.0
and then try to converge to the broken symmetry state with Ms=  0.0

------------------------------
INITIAL GUESS: MODEL POTENTIAL
------------------------------
Loading Hartree-Fock densities                     ... done
Calculating cut-offs                               ... done
Initializing the effective Hamiltonian             ... done
Setting up the integral package (SHARK)            ... done
Starting the Coulomb interaction                   ... done (   0.4 sec)
Making the grid                                    ... done (   0.5 sec)
Mapping shells                                     ... done
Starting the XC term evaluation                    ... done (   0.1 sec)
  promolecular density results
     # of electrons  =    647.997123182
     EX              =   -746.625474039
     EC              =    -23.521853530
     EX+EC           =   -770.147327570
Transforming the Hamiltonian                       ... done (   0.1 sec)
Diagonalizing the Hamiltonian                      ... done (   0.1 sec)
Back transforming the eigenvectors                 ... done (   0.1 sec)
Now organizing SCF variables                       ... done
                      ------------------
                      INITIAL GUESS DONE (   1.3 sec)
                      ------------------
             **** ENERGY FILE WAS UPDATED (TPA-Me.en.tmp) ****
Finished Guess after   3.7 sec
Maximum memory used throughout the entire GUESS-calculation: 89.9 MB


           ************************************************************
           *        Program running with 24 parallel MPI-processes    *
           *              working on a common directory               *
           ************************************************************

-------------------------------------------------------------------------------------------
                                      ORCA LEAN-SCF
                              memory conserving SCF solver
-------------------------------------------------------------------------------------------

                     ******************************************
                               F L I P    S P I N
                           -----------------------------
                            High-Spin SCF calculation
                                S(HS) =   0.0
                      ******************************************
 ----------------------------------------D-I-I-S--------------------------------------------
Iteration    Energy (Eh)           Delta-E    RMSDP     MaxDP     DIISErr   Damp  Time(sec)
-------------------------------------------------------------------------------------------
               ***  Starting incremental Fock matrix formation  ***
    1    -9632.0158852108052088     0.00e+00  2.13e-03  3.50e-02  8.69e-02  0.700   7.3
Warning: op=0 Small HOMO/LUMO gap (   0.010) - skipping pre-diagonalization
         Will do a full diagonalization
    2    -9632.4310463306737802    -4.15e-01  1.61e-03  2.35e-02  4.37e-02  0.700   4.6
                               ***Turning on AO-DIIS***
    3    -9632.6156071706882358    -1.85e-01  7.79e-04  8.18e-03  1.87e-02  0.700   4.0
    4    -9632.7224325523584412    -1.07e-01  1.57e-03  1.41e-02  9.74e-03  0.000   3.8
                              *** Initializing SOSCF ***
---------------------------------------S-O-S-C-F--------------------------------------
Iteration    Energy (Eh)           Delta-E    RMSDP     MaxDP     MaxGrad    Time(sec)
--------------------------------------------------------------------------------------
    5    -9632.9515322650968301    -2.29e-01  2.45e-04  3.16e-03  2.66e-03     4.5
               *** Restarting incremental Fock matrix formation ***
    6    -9632.9526737198339106    -1.14e-03  1.49e-04  1.91e-03  9.06e-04     7.1
    7    -9632.9526658722334105     7.85e-06  7.59e-05  1.22e-03  1.28e-03     4.8
    8    -9632.9528414333381079    -1.76e-04  8.60e-05  1.99e-03  1.48e-03     4.6
    9    -9632.9527284020023217     1.13e-04  6.13e-05  1.46e-03  3.69e-03     4.7
   10    -9632.9528680461571639    -1.40e-04  3.18e-05  6.10e-04  2.51e-04     4.6
   11    -9632.9528634569887799     4.59e-06  1.95e-05  4.12e-04  2.67e-04     4.2
   12    -9632.9528763212056219    -1.29e-05  6.51e-06  6.70e-05  1.27e-04     4.0
   13    -9632.9528767648243957    -4.44e-07  7.17e-06  7.19e-05  7.05e-05     3.8
   14    -9632.9528772176327038    -4.53e-07  2.70e-06  2.88e-05  1.57e-05     4.0
   15    -9632.9528771761197277     4.15e-08  1.17e-06  1.60e-05  1.96e-05     3.5
   16    -9632.9528772159919754    -3.99e-08  5.97e-07  7.88e-06  5.13e-06     3.2
   17    -9632.9528772262001439    -1.02e-08  3.25e-07  4.19e-06  5.42e-06     3.1
   18    -9632.9528771862806025     3.99e-08  1.08e-07  8.84e-07  6.73e-07     2.9
                  *** Gradient check signals convergence ***

               *****************************************************
               *                     SUCCESS                       *
               *           SCF CONVERGED AFTER  18 CYCLES          *
               *****************************************************

Recomputing exchange energy using gridx3       ... done (   11.144 sec)
Old exchange energy                            :   -188.660825869 Eh
New exchange energy                            :   -188.660890336 Eh
Exchange energy change after final integration :     -0.000064466 Eh
Total energy after final integration           :  -9632.952941655 Eh
             **** ENERGY FILE WAS UPDATED (TPA-Me.en.tmp) ****

----------------
TOTAL SCF ENERGY
----------------

Total Energy       :      -9632.95294165468295 Eh         -262125.97577 eV

Components:
Nuclear Repulsion  :      14908.30358951169001 Eh          405675.56482 eV
Electronic Energy  :     -24541.25646669992420 Eh         -667801.53883 eV
One Electron Energy:     -42987.82014967659052 Eh        -1169758.05562 eV
Two Electron Energy:      18446.56368297666631 Eh          501956.51679 eV

Virial components:
Potential Energy   :     -19241.05037081080081 Eh         -523575.59866 eV
Kinetic Energy     :       9608.09742915611787 Eh          261449.62289 eV
Virial Ratio       :          2.00258693385260

DFT components:
N(Alpha)           :      323.999920326898 electrons
N(Beta)            :      323.999920326898 electrons
N(Total)           :      647.999840653796 electrons
E(X)               :     -563.590542463929 Eh       
E(C)               :      -23.522111855414 Eh       
E(XC)              :     -587.112654319343 Eh       

---------------
SCF CONVERGENCE
---------------

  Last Energy change         ...   -3.9920e-08  Tolerance :   1.0000e-08
  Last MAX-Density change    ...    8.8422e-07  Tolerance :   1.0000e-07
  Last RMS-Density change    ...    1.0834e-07  Tolerance :   5.0000e-09
  Last DIIS Error            ...    2.6605e-03  Tolerance :   5.0000e-07
  Last Orbital Gradient      ...    6.7307e-07  Tolerance :   1.0000e-05
  Last Orbital Rotation      ...    5.8974e-06  Tolerance :   1.0000e-05


----------------------
UHF SPIN CONTAMINATION
----------------------

Warning: in a DFT calculation there is little theoretical justification to 
         calculate <S**2> as in Hartree-Fock theory. We will do it anyways
         but you should keep in mind that the values have only limited relevance

Expectation value of <S**2>     :     0.000000
Ideal value S*(S+1) for S=0.0   :     0.000000
Deviation                       :     0.000000


                    ********************************
                    * MULLIKEN POPULATION ANALYSIS *
                    ********************************

--------------------------------------------
MULLIKEN ATOMIC CHARGES AND SPIN POPULATIONS
--------------------------------------------
   0 C :   -0.152519   -0.000000
   1 C :    0.032340    0.000000
   2 C :   -0.129427   -0.000000
   3 C :   -0.143476    0.000000
   4 C :    0.243738    0.000000
   5 C :   -0.150386    0.000000
   6 N :   -0.620957    0.000000
   7 C :    0.242423   -0.000000
   8 C :    0.173173   -0.000000
   9 C :   -0.115535   -0.000000
  10 C :   -0.159823    0.000000
  11 C :    0.083415   -0.000000
  12 C :   -0.158767   -0.000000
  13 C :   -0.114612    0.000000
  14 C :   -0.148865   -0.000000
  15 C :   -0.151788   -0.000000
  16 C :    0.032077    0.000000
  17 C :   -0.130661   -0.000000
  18 C :   -0.145586    0.000000
  19 C :    0.219468    0.000000
  20 N :   -0.440383   -0.000000
  21 C :    0.043834    0.000000
  22 C :    0.090562   -0.000000
  23 C :   -0.135446    0.000000
  24 C :   -0.095514   -0.000000
  25 C :   -0.134035    0.000000
  26 C :    0.116431   -0.000000
  27 C :    0.112413   -0.000000
  28 C :   -0.158579    0.000000
  29 C :   -0.061761   -0.000000
  30 C :   -0.146529    0.000000
  31 C :   -0.061653    0.000000
  32 C :   -0.158132    0.000000
  33 C :   -0.157869    0.000000
  34 C :   -0.061417    0.000000
  35 C :   -0.146189    0.000000
  36 C :   -0.060842   -0.000000
  37 C :   -0.157069    0.000000
  38 Cl:    0.057822    0.000000
  39 Cl:    0.050766    0.000000
  40 Cl:    0.052277    0.000000
  41 Cl:    0.048153    0.000000
  42 Cl:    0.052348    0.000000
  43 Cl:    0.048476    0.000000
  44 Cl:    0.039228    0.000000
  45 Cl:    0.039400    0.000000
  46 C :    0.219882   -0.000000
  47 N :   -0.440760    0.000000
  48 C :    0.043443   -0.000000
  49 C :    0.090689    0.000000
  50 C :   -0.135608   -0.000000
  51 C :   -0.095507    0.000000
  52 C :   -0.134731   -0.000000
  53 C :    0.116802    0.000000
  54 C :    0.112438    0.000000
  55 C :   -0.158686   -0.000000
  56 C :   -0.061913    0.000000
  57 C :   -0.146535   -0.000000
  58 C :   -0.061821    0.000000
  59 C :   -0.158326   -0.000000
  60 C :   -0.158127   -0.000000
  61 C :   -0.061306    0.000000
  62 C :   -0.146292   -0.000000
  63 C :   -0.060837    0.000000
  64 C :   -0.156972   -0.000000
  65 Cl:    0.056245   -0.000000
  66 Cl:    0.050940   -0.000000
  67 Cl:    0.051486   -0.000000
  68 Cl:    0.048939   -0.000000
  69 Cl:    0.052512   -0.000000
  70 Cl:    0.046780   -0.000000
  71 Cl:    0.038739   -0.000000
  72 Cl:    0.039229   -0.000000
  73 C :   -0.445708   -0.000000
  74 H :    0.136530   -0.000000
  75 H :    0.170895   -0.000000
  76 H :    0.153629    0.000000
  77 H :    0.154344    0.000000
  78 H :    0.148893    0.000000
  79 H :    0.131756    0.000000
  80 H :    0.132226   -0.000000
  81 H :    0.148935   -0.000000
  82 H :    0.152403   -0.000000
  83 H :    0.134959   -0.000000
  84 H :    0.171572    0.000000
  85 H :    0.154843   -0.000000
  86 H :    0.158187    0.000000
  87 H :    0.176867   -0.000000
  88 H :    0.176429    0.000000
  89 H :    0.176627    0.000000
  90 H :    0.176757    0.000000
  91 H :    0.156686   -0.000000
  92 H :    0.176574    0.000000
  93 H :    0.176370    0.000000
  94 H :    0.176724    0.000000
  95 H :    0.176307    0.000000
  96 H :    0.146677    0.000000
  97 H :    0.161743   -0.000000
  98 H :    0.147549    0.000000
Sum of atomic charges         :   -0.0000000
Sum of atomic spin populations:    0.0000000

-----------------------------------------------------
MULLIKEN REDUCED ORBITAL CHARGES AND SPIN POPULATIONS
-----------------------------------------------------
CHARGE
  0 C s       :     3.179980  s :     3.179980
      pz      :     0.985268  p :     2.937266
      px      :     0.954172
      py      :     0.997826
      dz2     :     0.003846  d :     0.035274
      dxz     :     0.007557
      dyz     :     0.005858
      dx2y2   :     0.009850
      dxy     :     0.008163

  1 C s       :     3.137204  s :     3.137204
      pz      :     0.953447  p :     2.790595
      px      :     0.920752
      py      :     0.916396
      dz2     :     0.006381  d :     0.039861
      dxz     :     0.007510
      dyz     :     0.005959
      dx2y2   :     0.009412
      dxy     :     0.010600

  2 C s       :     3.193279  s :     3.193279
      pz      :     0.975659  p :     2.901264
      px      :     0.978492
      py      :     0.947112
      dz2     :     0.004024  d :     0.034884
      dxz     :     0.007101
      dyz     :     0.005734
      dx2y2   :     0.009689
      dxy     :     0.008337

  3 C s       :     3.174589  s :     3.174589
      pz      :     0.976687  p :     2.935073
      px      :     0.939092
      py      :     1.019294
      dz2     :     0.003695  d :     0.033814
      dxz     :     0.007689
      dyz     :     0.005253
      dx2y2   :     0.009341
      dxy     :     0.007837

  4 C s       :     3.082635  s :     3.082635
      pz      :     0.920140  p :     2.615871
      px      :     0.790597
      py      :     0.905133
      dz2     :     0.008398  d :     0.057755
      dxz     :     0.014056
      dyz     :     0.008535
      dx2y2   :     0.011850
      dxy     :     0.014917

  5 C s       :     3.173306  s :     3.173306
      pz      :     0.976344  p :     2.943208
      px      :     1.007064
      py      :     0.959800
      dz2     :     0.003953  d :     0.033873
      dxz     :     0.007149
      dyz     :     0.005851
      dx2y2   :     0.009305
      dxy     :     0.007615

  6 N s       :     3.626345  s :     3.626345
      pz      :     1.650424  p :     3.952806
      px      :     1.149851
      py      :     1.152531
      dz2     :     0.003454  d :     0.041806
      dxz     :     0.006322
      dyz     :     0.005472
      dx2y2   :     0.013224
      dxy     :     0.013334

  7 C s       :     3.083054  s :     3.083054
      pz      :     0.926507  p :     2.616733
      px      :     0.771788
      py      :     0.918438
      dz2     :     0.007655  d :     0.057790
      dxz     :     0.014179
      dyz     :     0.007952
      dx2y2   :     0.013136
      dxy     :     0.014867

  8 C s       :     3.101158  s :     3.101158
      pz      :     0.925497  p :     2.669269
      px      :     1.010899
      py      :     0.732874
      dz2     :     0.010504  d :     0.056400
      dxz     :     0.005747
      dyz     :     0.017449
      dx2y2   :     0.014021
      dxy     :     0.008678

  9 C s       :     3.172832  s :     3.172832
      pz      :     0.963493  p :     2.908541
      px      :     0.994290
      py      :     0.950758
      dz2     :     0.005217  d :     0.034161
      dxz     :     0.004633
      dyz     :     0.009732
      dx2y2   :     0.006063
      dxy     :     0.008515

 10 C s       :     3.191736  s :     3.191736
      pz      :     0.991157  p :     2.933375
      px      :     0.995297
      py      :     0.946921
      dz2     :     0.005169  d :     0.034713
      dxz     :     0.004831
      dyz     :     0.009315
      dx2y2   :     0.007071
      dxy     :     0.008326

 11 C s       :     3.135512  s :     3.135512
      pz      :     0.927192  p :     2.739301
      px      :     0.930781
      py      :     0.881327
      dz2     :     0.007779  d :     0.041773
      dxz     :     0.005396
      dyz     :     0.010716
      dx2y2   :     0.008643
      dxy     :     0.009239

 12 C s       :     3.192395  s :     3.192395
      pz      :     0.995418  p :     2.931667
      px      :     0.987598
      py      :     0.948652
      dz2     :     0.005299  d :     0.034704
      dxz     :     0.004902
      dyz     :     0.009372
      dx2y2   :     0.006791
      dxy     :     0.008340

 13 C s       :     3.172570  s :     3.172570
      pz      :     0.964249  p :     2.907872
      px      :     0.995740
      py      :     0.947882
      dz2     :     0.004957  d :     0.034171
      dxz     :     0.004550
      dyz     :     0.009998
      dx2y2   :     0.006317
      dxy     :     0.008348

 14 C s       :     3.173296  s :     3.173296
      pz      :     0.982241  p :     2.941773
      px      :     0.941539
      py      :     1.017993
      dz2     :     0.003610  d :     0.033795
      dxz     :     0.007568
      dyz     :     0.004689
      dx2y2   :     0.009374
      dxy     :     0.008553

 15 C s       :     3.179852  s :     3.179852
      pz      :     0.982316  p :     2.936649
      px      :     0.985834
      py      :     0.968499
      dz2     :     0.003531  d :     0.035287
      dxz     :     0.007065
      dyz     :     0.005720
      dx2y2   :     0.009310
      dxy     :     0.009661

 16 C s       :     3.137547  s :     3.137547
      pz      :     0.962751  p :     2.790515
      px      :     0.901734
      py      :     0.926031
      dz2     :     0.005804  d :     0.039861
      dxz     :     0.007021
      dyz     :     0.006050
      dx2y2   :     0.010316
      dxy     :     0.010671

 17 C s       :     3.193235  s :     3.193235
      pz      :     0.973385  p :     2.902566
      px      :     0.920674
      py      :     1.008507
      dz2     :     0.003668  d :     0.034860
      dxz     :     0.007451
      dyz     :     0.004853
      dx2y2   :     0.009888
      dxy     :     0.009000

 18 C s       :     3.175165  s :     3.175165
      pz      :     0.978624  p :     2.936518
      px      :     1.005283
      py      :     0.952612
      dz2     :     0.003488  d :     0.033903
      dxz     :     0.006802
      dyz     :     0.005574
      dx2y2   :     0.009408
      dxy     :     0.008631

 19 C s       :     3.047955  s :     3.047955
      pz      :     0.910303  p :     2.671405
      px      :     0.856253
      py      :     0.904850
      dz2     :     0.007524  d :     0.061171
      dxz     :     0.010889
      dyz     :     0.008886
      dx2y2   :     0.017107
      dxy     :     0.016765

 20 N s       :     3.712900  s :     3.712900
      pz      :     1.210462  p :     3.687751
      px      :     1.009484
      py      :     1.467805
      dz2     :     0.005717  d :     0.039732
      dxz     :     0.008315
      dyz     :     0.006146
      dx2y2   :     0.006654
      dxy     :     0.012898

 21 C s       :     3.104361  s :     3.104361
      pz      :     0.952818  p :     2.780575
      px      :     0.869248
      py      :     0.958508
      dz2     :     0.006692  d :     0.071230
      dxz     :     0.014150
      dyz     :     0.008380
      dx2y2   :     0.019962
      dxy     :     0.022046

 22 C s       :     3.136427  s :     3.136427
      pz      :     0.951768  p :     2.731865
      px      :     0.910329
      py      :     0.869769
      dz2     :     0.004700  d :     0.041145
      dxz     :     0.007163
      dyz     :     0.005430
      dx2y2   :     0.012467
      dxy     :     0.011386

 23 C s       :     3.181844  s :     3.181844
      pz      :     0.990292  p :     2.903124
      px      :     1.051013
      py      :     0.861818
      dz2     :     0.005868  d :     0.050477
      dxz     :     0.008646
      dyz     :     0.008391
      dx2y2   :     0.014430
      dxy     :     0.013142

 24 C s       :     3.147776  s :     3.147776
      pz      :     1.009098  p :     2.914883
      px      :     0.968074
      py      :     0.937711
      dz2     :     0.003404  d :     0.032855
      dxz     :     0.005749
      dyz     :     0.005423
      dx2y2   :     0.008809
      dxy     :     0.009471

 25 C s       :     3.145316  s :     3.145316
      pz      :     0.953156  p :     2.949533
      px      :     0.974223
      py      :     1.022155
      dz2     :     0.009338  d :     0.039186
      dxz     :     0.011909
      dyz     :     0.007017
      dx2y2   :     0.005303
      dxy     :     0.005619

 26 C s       :     3.128840  s :     3.128840
      pz      :     0.874645  p :     2.713365
      px      :     0.844519
      py      :     0.994201
      dz2     :     0.010388  d :     0.041364
      dxz     :     0.010746
      dyz     :     0.007648
      dx2y2   :     0.006497
      dxy     :     0.006085

 27 C s       :     3.130197  s :     3.130197
      pz      :     0.874210  p :     2.716033
      px      :     0.976644
      py      :     0.865180
      dz2     :     0.010320  d :     0.041357
      dxz     :     0.006813
      dyz     :     0.011182
      dx2y2   :     0.006501
      dxy     :     0.006541

 28 C s       :     3.183483  s :     3.183483
      pz      :     0.915598  p :     2.925420
      px      :     1.034527
      py      :     0.975295
      dz2     :     0.011711  d :     0.049676
      dxz     :     0.007896
      dyz     :     0.014666
      dx2y2   :     0.007835
      dxy     :     0.007569

 29 C s       :     3.154676  s :     3.154676
      pz      :     0.856736  p :     2.873642
      px      :     0.990774
      py      :     1.026133
      dz2     :     0.008902  d :     0.033442
      dxz     :     0.006771
      dyz     :     0.009359
      dx2y2   :     0.004328
      dxy     :     0.004082

 30 C s       :     3.185092  s :     3.185092
      pz      :     0.902033  p :     2.910398
      px      :     1.004964
      py      :     1.003402
      dz2     :     0.012514  d :     0.051039
      dxz     :     0.009448
      dyz     :     0.014137
      dx2y2   :     0.007291
      dxy     :     0.007648

 31 C s       :     3.154346  s :     3.154346
      pz      :     0.986804  p :     2.873868
      px      :     0.971060
      py      :     0.916004
      dz2     :     0.007951  d :     0.033439
      dxz     :     0.004567
      dyz     :     0.009449
      dx2y2   :     0.006034
      dxy     :     0.005438

 32 C s       :     3.183571  s :     3.183571
      pz      :     1.036016  p :     2.924925
      px      :     1.023716
      py      :     0.865194
      dz2     :     0.011953  d :     0.049635
      dxz     :     0.007835
      dyz     :     0.013446
      dx2y2   :     0.008503
      dxy     :     0.007898

 33 C s       :     3.183161  s :     3.183161
      pz      :     0.920243  p :     2.925033
      px      :     0.996453
      py      :     1.008337
      dz2     :     0.011733  d :     0.049675
      dxz     :     0.014356
      dyz     :     0.008574
      dx2y2   :     0.007103
      dxy     :     0.007908

 34 C s       :     3.154466  s :     3.154466
      pz      :     0.853622  p :     2.873507
      px      :     1.022703
      py      :     0.997182
      dz2     :     0.008913  d :     0.033444
      dxz     :     0.009781
      dyz     :     0.006647
      dx2y2   :     0.004356
      dxy     :     0.003746

 35 C s       :     3.185096  s :     3.185096
      pz      :     0.890092  p :     2.910046
      px      :     0.984845
      py      :     1.035109
      dz2     :     0.012900  d :     0.051047
      dxz     :     0.015600
      dyz     :     0.008068
      dx2y2   :     0.007011
      dxy     :     0.007469

 36 C s       :     3.154016  s :     3.154016
      pz      :     0.979010  p :     2.873381
      px      :     0.893246
      py      :     1.001125
      dz2     :     0.008152  d :     0.033444
      dxz     :     0.009559
      dyz     :     0.004645
      dx2y2   :     0.005195
      dxy     :     0.005893

 37 C s       :     3.182961  s :     3.182961
      pz      :     1.037412  p :     2.924489
      px      :     0.872369
      py      :     1.014708
      dz2     :     0.012025  d :     0.049619
      dxz     :     0.013339
      dyz     :     0.008200
      dx2y2   :     0.007926
      dxy     :     0.008128

 38 Cls       :     5.923698  s :     5.923698
      pz      :     3.805459  p :    10.988112
      px      :     3.932482
      py      :     3.250171
      dz2     :     0.003909  d :     0.030368
      dxz     :     0.000858
      dyz     :     0.010247
      dx2y2   :     0.011649
      dxy     :     0.003706

 39 Cls       :     5.924869  s :     5.924869
      pz      :     3.926518  p :    10.993926
      px      :     3.853809
      py      :     3.213599
      dz2     :     0.005060  d :     0.030438
      dxz     :     0.000777
      dyz     :     0.004049
      dx2y2   :     0.011502
      dxy     :     0.009051

 40 Cls       :     5.924268  s :     5.924268
      pz      :     3.432388  p :    10.993062
      px      :     3.922738
      py      :     3.637936
      dz2     :     0.007412  d :     0.030394
      dxz     :     0.004246
      dyz     :     0.013667
      dx2y2   :     0.002783
      dxy     :     0.002287

 41 Cls       :     5.924659  s :     5.924659
      pz      :     3.788947  p :    10.999105
      px      :     3.527252
      py      :     3.682905
      dz2     :     0.003575  d :     0.028083
      dxz     :     0.006927
      dyz     :     0.003985
      dx2y2   :     0.003141
      dxy     :     0.010455

 42 Cls       :     5.923969  s :     5.923969
      pz      :     3.455107  p :    10.993289
      px      :     3.733709
      py      :     3.804473
      dz2     :     0.006604  d :     0.030394
      dxz     :     0.010339
      dyz     :     0.007901
      dx2y2   :     0.002294
      dxy     :     0.003256

 43 Cls       :     5.924401  s :     5.924401
      pz      :     3.933177  p :    10.996759
      px      :     3.243132
      py      :     3.820450
      dz2     :     0.005197  d :     0.030364
      dxz     :     0.003704
      dyz     :     0.000738
      dx2y2   :     0.010816
      dxy     :     0.009909

 44 Cls       :     5.922765  s :     5.922765
      pz      :     3.398124  p :    11.008089
      px      :     3.800949
      py      :     3.809016
      dz2     :     0.008014  d :     0.029918
      dxz     :     0.008798
      dyz     :     0.008537
      dx2y2   :     0.002096
      dxy     :     0.002473

 45 Cls       :     5.922679  s :     5.922679
      pz      :     3.349889  p :    11.008001
      px      :     3.734501
      py      :     3.923611
      dz2     :     0.009524  d :     0.029920
      dxz     :     0.011914
      dyz     :     0.004900
      dx2y2   :     0.001770
      dxy     :     0.001811

 46 C s       :     3.047592  s :     3.047592
      pz      :     0.915914  p :     2.671366
      px      :     0.962767
      py      :     0.792686
      dz2     :     0.006766  d :     0.061159
      dxz     :     0.009100
      dyz     :     0.010202
      dx2y2   :     0.016316
      dxy     :     0.018775

 47 N s       :     3.712921  s :     3.712921
      pz      :     1.197177  p :     3.688113
      px      :     1.358933
      py      :     1.132003
      dz2     :     0.005446  d :     0.039727
      dxz     :     0.007208
      dyz     :     0.007160
      dx2y2   :     0.011515
      dxy     :     0.008398

 48 C s       :     3.104351  s :     3.104351
      pz      :     0.957287  p :     2.780970
      px      :     0.982710
      py      :     0.840973
      dz2     :     0.006168  d :     0.071236
      dxz     :     0.012196
      dyz     :     0.009640
      dx2y2   :     0.024765
      dxy     :     0.018467

 49 C s       :     3.136529  s :     3.136529
      pz      :     0.963996  p :     2.731599
      px      :     0.884085
      py      :     0.883518
      dz2     :     0.004481  d :     0.041184
      dxz     :     0.006503
      dyz     :     0.005762
      dx2y2   :     0.014365
      dxy     :     0.010072

 50 C s       :     3.181703  s :     3.181703
      pz      :     0.997936  p :     2.903445
      px      :     0.912855
      py      :     0.992654
      dz2     :     0.005437  d :     0.050460
      dxz     :     0.009247
      dyz     :     0.007382
      dx2y2   :     0.013881
      dxy     :     0.014514

 51 C s       :     3.147507  s :     3.147507
      pz      :     1.010348  p :     2.915133
      px      :     0.884613
      py      :     1.020172
      dz2     :     0.003262  d :     0.032867
      dxz     :     0.006642
      dyz     :     0.004087
      dx2y2   :     0.009746
      dxy     :     0.009131

 52 C s       :     3.144573  s :     3.144573
      pz      :     0.956317  p :     2.951003
      px      :     0.976592
      py      :     1.018094
      dz2     :     0.008806  d :     0.039155
      dxz     :     0.011477
      dyz     :     0.007547
      dx2y2   :     0.004899
      dxy     :     0.006427

 53 C s       :     3.128873  s :     3.128873
      pz      :     0.870663  p :     2.712936
      px      :     0.988849
      py      :     0.853424
      dz2     :     0.010892  d :     0.041390
      dxz     :     0.006502
      dyz     :     0.011554
      dx2y2   :     0.006434
      dxy     :     0.006008

 54 C s       :     3.130211  s :     3.130211
      pz      :     0.869054  p :     2.715966
      px      :     0.844872
      py      :     1.002041
      dz2     :     0.010815  d :     0.041385
      dxz     :     0.010606
      dyz     :     0.007005
      dx2y2   :     0.006793
      dxy     :     0.006167

 55 C s       :     3.183439  s :     3.183439
      pz      :     0.903940  p :     2.925577
      px      :     1.004752
      py      :     1.016885
      dz2     :     0.012028  d :     0.049669
      dxz     :     0.014726
      dyz     :     0.007954
      dx2y2   :     0.006814
      dxy     :     0.008147

 56 C s       :     3.154529  s :     3.154529
      pz      :     0.854743  p :     2.873934
      px      :     1.023342
      py      :     0.995849
      dz2     :     0.008941  d :     0.033450
      dxz     :     0.009905
      dyz     :     0.006436
      dx2y2   :     0.004751
      dxy     :     0.003416

 57 C s       :     3.185008  s :     3.185008
      pz      :     0.908085  p :     2.910497
      px      :     0.967359
      py      :     1.035052
      dz2     :     0.012465  d :     0.051031
      dxz     :     0.016167
      dyz     :     0.007697
      dx2y2   :     0.006818
      dxy     :     0.007884

 58 C s       :     3.154286  s :     3.154286
      pz      :     0.994075  p :     2.874088
      px      :     0.876784
      py      :     1.003229
      dz2     :     0.008074  d :     0.033446
      dxz     :     0.009946
      dyz     :     0.003950
      dx2y2   :     0.005277
      dxy     :     0.006199

 59 C s       :     3.183575  s :     3.183575
      pz      :     1.034529  p :     2.925116
      px      :     0.863442
      py      :     1.027145
      dz2     :     0.011952  d :     0.049635
      dxz     :     0.013937
      dyz     :     0.007685
      dx2y2   :     0.008042
      dxy     :     0.008019

 60 C s       :     3.183243  s :     3.183243
      pz      :     0.910453  p :     2.925212
      px      :     1.034983
      py      :     0.979776
      dz2     :     0.012003  d :     0.049673
      dxz     :     0.007755
      dyz     :     0.015364
      dx2y2   :     0.007039
      dxy     :     0.007512

 61 C s       :     3.154481  s :     3.154481
      pz      :     0.850430  p :     2.873377
      px      :     0.995260
      py      :     1.027687
      dz2     :     0.008945  d :     0.033448
      dxz     :     0.006770
      dyz     :     0.009898
      dx2y2   :     0.004430
      dxy     :     0.003405

 62 C s       :     3.185075  s :     3.185075
      pz      :     0.893201  p :     2.910171
      px      :     1.022061
      py      :     0.994909
      dz2     :     0.012909  d :     0.051045
      dxz     :     0.008680
      dyz     :     0.015245
      dx2y2   :     0.006634
      dxy     :     0.007577

 63 C s       :     3.153954  s :     3.153954
      pz      :     0.984312  p :     2.873433
      px      :     0.985809
      py      :     0.903312
      dz2     :     0.008277  d :     0.033449
      dxz     :     0.004162
      dyz     :     0.009960
      dx2y2   :     0.005562
      dxy     :     0.005488

 64 C s       :     3.182852  s :     3.182852
      pz      :     1.037375  p :     2.924515
      px      :     1.032969
      py      :     0.854170
      dz2     :     0.012039  d :     0.049604
      dxz     :     0.007780
      dyz     :     0.014061
      dx2y2   :     0.008221
      dxy     :     0.007503

 65 Cls       :     5.923622  s :     5.923622
      pz      :     3.836657  p :    10.989788
      px      :     3.417792
      py      :     3.735340
      dz2     :     0.004017  d :     0.030345
      dxz     :     0.007510
      dyz     :     0.002537
      dx2y2   :     0.005634
      dxy     :     0.010647

 66 Cls       :     5.924902  s :     5.924902
      pz      :     3.916124  p :    10.993712
      px      :     3.206748
      py      :     3.870839
      dz2     :     0.004872  d :     0.030447
      dxz     :     0.004739
      dyz     :     0.000598
      dx2y2   :     0.011842
      dxy     :     0.008396

 67 Cls       :     5.924215  s :     5.924215
      pz      :     3.386102  p :    10.993915
      px      :     3.768443
      py      :     3.839369
      dz2     :     0.008745  d :     0.030384
      dxz     :     0.009899
      dyz     :     0.007620
      dx2y2   :     0.001714
      dxy     :     0.002406

 68 Cls       :     5.924684  s :     5.924684
      pz      :     3.816583  p :    10.998268
      px      :     3.925206
      py      :     3.256479
      dz2     :     0.003683  d :     0.028109
      dxz     :     0.000660
      dyz     :     0.009338
      dx2y2   :     0.011077
      dxy     :     0.003351

 69 Cls       :     5.923992  s :     5.923992
      pz      :     3.416156  p :    10.993093
      px      :     3.921883
      py      :     3.655054
      dz2     :     0.007574  d :     0.030403
      dxz     :     0.004613
      dyz     :     0.013493
      dx2y2   :     0.002534
      dxy     :     0.002189

 70 Cls       :     5.924207  s :     5.924207
      pz      :     3.929281  p :    10.998681
      px      :     3.891385
      py      :     3.178014
      dz2     :     0.005136  d :     0.030332
      dxz     :     0.000481
      dyz     :     0.004112
      dx2y2   :     0.012619
      dxy     :     0.007984

 71 Cls       :     5.922761  s :     5.922761
      pz      :     3.424264  p :    11.008578
      px      :     3.665608
      py      :     3.918706
      dz2     :     0.007136  d :     0.029922
      dxz     :     0.013171
      dyz     :     0.004490
      dx2y2   :     0.002574
      dxy     :     0.002551

 72 Cls       :     5.922725  s :     5.922725
      pz      :     3.363245  p :    11.008118
      px      :     3.868784
      py      :     3.776089
      dz2     :     0.008949  d :     0.029929
      dxz     :     0.006918
      dyz     :     0.010220
      dx2y2   :     0.001749
      dxy     :     0.002093

 73 C s       :     3.279723  s :     3.279723
      pz      :     1.087248  p :     3.135469
      px      :     1.087221
      py      :     0.961000
      dz2     :     0.005180  d :     0.030517
      dxz     :     0.006013
      dyz     :     0.006169
      dx2y2   :     0.007358
      dxy     :     0.005797

 74 H s       :     0.850944  s :     0.850944
      pz      :     0.004430  p :     0.012526
      px      :     0.002033
      py      :     0.006063

 75 H s       :     0.816201  s :     0.816201
      pz      :     0.003811  p :     0.012903
      px      :     0.006545
      py      :     0.002547

 76 H s       :     0.833679  s :     0.833679
      pz      :     0.004267  p :     0.012691
      px      :     0.001969
      py      :     0.006456

 77 H s       :     0.832968  s :     0.832968
      pz      :     0.004111  p :     0.012687
      px      :     0.005860
      py      :     0.002716

 78 H s       :     0.838558  s :     0.838558
      pz      :     0.004712  p :     0.012549
      px      :     0.004349
      py      :     0.003488

 79 H s       :     0.855838  s :     0.855838
      pz      :     0.005075  p :     0.012406
      px      :     0.004082
      py      :     0.003249

 80 H s       :     0.855366  s :     0.855366
      pz      :     0.004727  p :     0.012408
      px      :     0.004318
      py      :     0.003364

 81 H s       :     0.838518  s :     0.838518
      pz      :     0.005089  p :     0.012547
      px      :     0.004079
      py      :     0.003379

 82 H s       :     0.834873  s :     0.834873
      pz      :     0.003882  p :     0.012724
      px      :     0.002060
      py      :     0.006781

 83 H s       :     0.852521  s :     0.852521
      pz      :     0.004076  p :     0.012520
      px      :     0.005175
      py      :     0.003269

 84 H s       :     0.815515  s :     0.815515
      pz      :     0.003620  p :     0.012913
      px      :     0.002261
      py      :     0.007032

 85 H s       :     0.832511  s :     0.832511
      pz      :     0.003979  p :     0.012646
      px      :     0.005514
      py      :     0.003152

 86 H s       :     0.828949  s :     0.828949
      pz      :     0.003714  p :     0.012864
      px      :     0.005530
      py      :     0.003620

 87 H s       :     0.810293  s :     0.810293
      pz      :     0.001834  p :     0.012839
      px      :     0.003423
      py      :     0.007583

 88 H s       :     0.810732  s :     0.810732
      pz      :     0.006467  p :     0.012838
      px      :     0.002593
      py      :     0.003778

 89 H s       :     0.810533  s :     0.810533
      pz      :     0.001800  p :     0.012840
      px      :     0.007790
      py      :     0.003249

 90 H s       :     0.810400  s :     0.810400
      pz      :     0.006269  p :     0.012843
      px      :     0.003216
      py      :     0.003359

 91 H s       :     0.830454  s :     0.830454
      pz      :     0.003556  p :     0.012860
      px      :     0.001976
      py      :     0.007328

 92 H s       :     0.810588  s :     0.810588
      pz      :     0.001860  p :     0.012838
      px      :     0.008021
      py      :     0.002957

 93 H s       :     0.810791  s :     0.810791
      pz      :     0.006804  p :     0.012839
      px      :     0.002846
      py      :     0.003189

 94 H s       :     0.810436  s :     0.810436
      pz      :     0.001785  p :     0.012840
      px      :     0.003120
      py      :     0.007934

 95 H s       :     0.810852  s :     0.810852
      pz      :     0.006542  p :     0.012841
      px      :     0.002695
      py      :     0.003604

 96 H s       :     0.841731  s :     0.841731
      pz      :     0.003040  p :     0.011592
      px      :     0.005654
      py      :     0.002898

 97 H s       :     0.826588  s :     0.826588
      pz      :     0.004047  p :     0.011669
      px      :     0.005010
      py      :     0.002611

 98 H s       :     0.840851  s :     0.840851
      pz      :     0.006085  p :     0.011600
      px      :     0.002539
      py      :     0.002975


SPIN
  0 C s       :    -0.000000  s :    -0.000000
      pz      :     0.000000  p :     0.000000
      px      :     0.000000
      py      :     0.000000
      dz2     :    -0.000000  d :    -0.000000
      dxz     :    -0.000000
      dyz     :    -0.000000
      dx2y2   :    -0.000000
      dxy     :    -0.000000

  1 C s       :     0.000000  s :     0.000000
      pz      :    -0.000000  p :    -0.000000
      px      :     0.000000
      py      :    -0.000000
      dz2     :     0.000000  d :     0.000000
      dxz     :     0.000000
      dyz     :     0.000000
      dx2y2   :     0.000000
      dxy     :     0.000000

  2 C s       :    -0.000000  s :    -0.000000
      pz      :     0.000000  p :     0.000000
      px      :    -0.000000
      py      :     0.000000
      dz2     :    -0.000000  d :    -0.000000
      dxz     :    -0.000000
      dyz     :    -0.000000
      dx2y2   :    -0.000000
      dxy     :    -0.000000

  3 C s       :     0.000000  s :     0.000000
      pz      :    -0.000000  p :    -0.000000
      px      :     0.000000
      py      :    -0.000000
      dz2     :     0.000000  d :     0.000000
      dxz     :     0.000000
      dyz     :     0.000000
      dx2y2   :    -0.000000
      dxy     :     0.000000

  4 C s       :     0.000000  s :     0.000000
      pz      :     0.000000  p :     0.000000
      px      :    -0.000000
      py      :     0.000000
      dz2     :     0.000000  d :    -0.000000
      dxz     :    -0.000000
      dyz     :    -0.000000
      dx2y2   :    -0.000000
      dxy     :    -0.000000

  5 C s       :     0.000000  s :     0.000000
      pz      :    -0.000000  p :    -0.000000
      px      :    -0.000000
      py      :    -0.000000
      dz2     :     0.000000  d :     0.000000
      dxz     :     0.000000
      dyz     :     0.000000
      dx2y2   :     0.000000
      dxy     :     0.000000

  6 N s       :     0.000000  s :     0.000000
      pz      :     0.000000  p :     0.000000
      px      :    -0.000000
      py      :     0.000000
      dz2     :    -0.000000  d :     0.000000
      dxz     :    -0.000000
      dyz     :     0.000000
      dx2y2   :     0.000000
      dxy     :     0.000000

  7 C s       :     0.000000  s :     0.000000
      pz      :    -0.000000  p :    -0.000000
      px      :     0.000000
      py      :    -0.000000
      dz2     :     0.000000  d :     0.000000
      dxz     :     0.000000
      dyz     :     0.000000
      dx2y2   :    -0.000000
      dxy     :     0.000000

  8 C s       :    -0.000000  s :    -0.000000
      pz      :     0.000000  p :    -0.000000
      px      :    -0.000000
      py      :    -0.000000
      dz2     :    -0.000000  d :    -0.000000
      dxz     :    -0.000000
      dyz     :    -0.000000
      dx2y2   :    -0.000000
      dxy     :     0.000000

  9 C s       :    -0.000000  s :    -0.000000
      pz      :     0.000000  p :    -0.000000
      px      :    -0.000000
      py      :    -0.000000
      dz2     :     0.000000  d :    -0.000000
      dxz     :     0.000000
      dyz     :    -0.000000
      dx2y2   :    -0.000000
      dxy     :    -0.000000

 10 C s       :     0.000000  s :     0.000000
      pz      :    -0.000000  p :     0.000000
      px      :     0.000000
      py      :     0.000000
      dz2     :     0.000000  d :     0.000000
      dxz     :     0.000000
      dyz     :     0.000000
      dx2y2   :     0.000000
      dxy     :     0.000000

 11 C s       :    -0.000000  s :    -0.000000
      pz      :     0.000000  p :    -0.000000
      px      :    -0.000000
      py      :    -0.000000
      dz2     :     0.000000  d :    -0.000000
      dxz     :    -0.000000
      dyz     :    -0.000000
      dx2y2   :    -0.000000
      dxy     :    -0.000000

 12 C s       :    -0.000000  s :    -0.000000
      pz      :     0.000000  p :     0.000000
      px      :     0.000000
      py      :     0.000000
      dz2     :    -0.000000  d :     0.000000
      dxz     :     0.000000
      dyz     :    -0.000000
      dx2y2   :     0.000000
      dxy     :     0.000000

 13 C s       :     0.000000  s :     0.000000
      pz      :    -0.000000  p :     0.000000
      px      :    -0.000000
      py      :     0.000000
      dz2     :    -0.000000  d :     0.000000
      dxz     :     0.000000
      dyz     :     0.000000
      dx2y2   :     0.000000
      dxy     :    -0.000000

 14 C s       :    -0.000000  s :    -0.000000
      pz      :     0.000000  p :     0.000000
      px      :     0.000000
      py      :     0.000000
      dz2     :    -0.000000  d :    -0.000000
      dxz     :    -0.000000
      dyz     :    -0.000000
      dx2y2   :    -0.000000
      dxy     :    -0.000000

 15 C s       :    -0.000000  s :    -0.000000
      pz      :    -0.000000  p :    -0.000000
      px      :     0.000000
      py      :    -0.000000
      dz2     :     0.000000  d :     0.000000
      dxz     :     0.000000
      dyz     :     0.000000
      dx2y2   :     0.000000
      dxy     :     0.000000

 16 C s       :     0.000000  s :     0.000000
      pz      :     0.000000  p :     0.000000
      px      :     0.000000
      py      :     0.000000
      dz2     :    -0.000000  d :    -0.000000
      dxz     :    -0.000000
      dyz     :    -0.000000
      dx2y2   :    -0.000000
      dxy     :    -0.000000

 17 C s       :    -0.000000  s :    -0.000000
      pz      :    -0.000000  p :    -0.000000
      px      :    -0.000000
      py      :    -0.000000
      dz2     :    -0.000000  d :     0.000000
      dxz     :     0.000000
      dyz     :    -0.000000
      dx2y2   :     0.000000
      dxy     :     0.000000

 18 C s       :     0.000000  s :     0.000000
      pz      :     0.000000  p :     0.000000
      px      :     0.000000
      py      :     0.000000
      dz2     :    -0.000000  d :    -0.000000
      dxz     :    -0.000000
      dyz     :    -0.000000
      dx2y2   :    -0.000000
      dxy     :     0.000000

 19 C s       :     0.000000  s :     0.000000
      pz      :     0.000000  p :     0.000000
      px      :     0.000000
      py      :     0.000000
      dz2     :    -0.000000  d :    -0.000000
      dxz     :    -0.000000
      dyz     :    -0.000000
      dx2y2   :     0.000000
      dxy     :    -0.000000

 20 N s       :    -0.000000  s :    -0.000000
      pz      :    -0.000000  p :    -0.000000
      px      :    -0.000000
      py      :    -0.000000
      dz2     :     0.000000  d :     0.000000
      dxz     :     0.000000
      dyz     :    -0.000000
      dx2y2   :     0.000000
      dxy     :     0.000000

 21 C s       :     0.000000  s :     0.000000
      pz      :     0.000000  p :     0.000000
      px      :     0.000000
      py      :     0.000000
      dz2     :     0.000000  d :    -0.000000
      dxz     :    -0.000000
      dyz     :    -0.000000
      dx2y2   :    -0.000000
      dxy     :    -0.000000

 22 C s       :    -0.000000  s :    -0.000000
      pz      :    -0.000000  p :    -0.000000
      px      :    -0.000000
      py      :    -0.000000
      dz2     :     0.000000  d :     0.000000
      dxz     :     0.000000
      dyz     :     0.000000
      dx2y2   :     0.000000
      dxy     :     0.000000

 23 C s       :    -0.000000  s :    -0.000000
      pz      :     0.000000  p :     0.000000
      px      :    -0.000000
      py      :     0.000000
      dz2     :    -0.000000  d :    -0.000000
      dxz     :    -0.000000
      dyz     :    -0.000000
      dx2y2   :    -0.000000
      dxy     :    -0.000000

 24 C s       :     0.000000  s :     0.000000
      pz      :    -0.000000  p :    -0.000000
      px      :     0.000000
      py      :    -0.000000
      dz2     :     0.000000  d :     0.000000
      dxz     :     0.000000
      dyz     :     0.000000
      dx2y2   :     0.000000
      dxy     :     0.000000

 25 C s       :     0.000000  s :     0.000000
      pz      :     0.000000  p :     0.000000
      px      :     0.000000
      py      :     0.000000
      dz2     :    -0.000000  d :    -0.000000
      dxz     :    -0.000000
      dyz     :    -0.000000
      dx2y2   :    -0.000000
      dxy     :    -0.000000

 26 C s       :    -0.000000  s :    -0.000000
      pz      :    -0.000000  p :    -0.000000
      px      :     0.000000
      py      :    -0.000000
      dz2     :     0.000000  d :     0.000000
      dxz     :     0.000000
      dyz     :     0.000000
      dx2y2   :     0.000000
      dxy     :     0.000000

 27 C s       :    -0.000000  s :    -0.000000
      pz      :    -0.000000  p :    -0.000000
      px      :    -0.000000
      py      :    -0.000000
      dz2     :     0.000000  d :     0.000000
      dxz     :     0.000000
      dyz     :     0.000000
      dx2y2   :     0.000000
      dxy     :     0.000000

 28 C s       :     0.000000  s :     0.000000
      pz      :     0.000000  p :     0.000000
      px      :     0.000000
      py      :    -0.000000
      dz2     :     0.000000  d :    -0.000000
      dxz     :     0.000000
      dyz     :    -0.000000
      dx2y2   :    -0.000000
      dxy     :    -0.000000

 29 C s       :    -0.000000  s :    -0.000000
      pz      :    -0.000000  p :    -0.000000
      px      :    -0.000000
      py      :     0.000000
      dz2     :     0.000000  d :     0.000000
      dxz     :     0.000000
      dyz     :     0.000000
      dx2y2   :    -0.000000
      dxy     :     0.000000

 30 C s       :    -0.000000  s :    -0.000000
      pz      :     0.000000  p :     0.000000
      px      :     0.000000
      py      :     0.000000
      dz2     :    -0.000000  d :    -0.000000
      dxz     :    -0.000000
      dyz     :    -0.000000
      dx2y2   :    -0.000000
      dxy     :    -0.000000

 31 C s       :     0.000000  s :     0.000000
      pz      :     0.000000  p :    -0.000000
      px      :    -0.000000
      py      :    -0.000000
      dz2     :     0.000000  d :     0.000000
      dxz     :     0.000000
      dyz     :     0.000000
      dx2y2   :     0.000000
      dxy     :     0.000000

 32 C s       :    -0.000000  s :    -0.000000
      pz      :     0.000000  p :     0.000000
      px      :     0.000000
      py      :    -0.000000
      dz2     :    -0.000000  d :    -0.000000
      dxz     :    -0.000000
      dyz     :    -0.000000
      dx2y2   :    -0.000000
      dxy     :    -0.000000

 33 C s       :    -0.000000  s :    -0.000000
      pz      :    -0.000000  p :     0.000000
      px      :     0.000000
      py      :     0.000000
      dz2     :     0.000000  d :    -0.000000
      dxz     :    -0.000000
      dyz     :    -0.000000
      dx2y2   :    -0.000000
      dxy     :    -0.000000

 34 C s       :     0.000000  s :     0.000000
      pz      :     0.000000  p :    -0.000000
      px      :     0.000000
      py      :    -0.000000
      dz2     :     0.000000  d :     0.000000
      dxz     :     0.000000
      dyz     :     0.000000
      dx2y2   :     0.000000
      dxy     :     0.000000

 35 C s       :    -0.000000  s :    -0.000000
      pz      :    -0.000000  p :     0.000000
      px      :     0.000000
      py      :     0.000000
      dz2     :    -0.000000  d :    -0.000000
      dxz     :    -0.000000
      dyz     :    -0.000000
      dx2y2   :    -0.000000
      dxy     :    -0.000000

 36 C s       :    -0.000000  s :    -0.000000
      pz      :    -0.000000  p :    -0.000000
      px      :    -0.000000
      py      :    -0.000000
      dz2     :     0.000000  d :     0.000000
      dxz     :    -0.000000
      dyz     :     0.000000
      dx2y2   :     0.000000
      dxy     :     0.000000

 37 C s       :     0.000000  s :     0.000000
      pz      :     0.000000  p :     0.000000
      px      :     0.000000
      py      :     0.000000
      dz2     :    -0.000000  d :    -0.000000
      dxz     :     0.000000
      dyz     :    -0.000000
      dx2y2   :    -0.000000
      dxy     :     0.000000

 38 Cls       :     0.000000  s :     0.000000
      pz      :     0.000000  p :     0.000000
      px      :     0.000000
      py      :    -0.000000
      dz2     :     0.000000  d :     0.000000
      dxz     :     0.000000
      dyz     :     0.000000
      dx2y2   :     0.000000
      dxy     :     0.000000

 39 Cls       :    -0.000000  s :    -0.000000
      pz      :    -0.000000  p :     0.000000
      px      :     0.000000
      py      :    -0.000000
      dz2     :     0.000000  d :     0.000000
      dxz     :    -0.000000
      dyz     :     0.000000
      dx2y2   :     0.000000
      dxy     :     0.000000

 40 Cls       :    -0.000000  s :    -0.000000
      pz      :     0.000000  p :     0.000000
      px      :     0.000000
      py      :    -0.000000
      dz2     :     0.000000  d :     0.000000
      dxz     :     0.000000
      dyz     :    -0.000000
      dx2y2   :    -0.000000
      dxy     :     0.000000

 41 Cls       :    -0.000000  s :    -0.000000
      pz      :     0.000000  p :     0.000000
      px      :    -0.000000
      py      :    -0.000000
      dz2     :     0.000000  d :     0.000000
      dxz     :     0.000000
      dyz     :     0.000000
      dx2y2   :    -0.000000
      dxy     :    -0.000000

 42 Cls       :     0.000000  s :     0.000000
      pz      :     0.000000  p :     0.000000
      px      :     0.000000
      py      :     0.000000
      dz2     :     0.000000  d :     0.000000
      dxz     :     0.000000
      dyz     :     0.000000
      dx2y2   :     0.000000
      dxy     :     0.000000

 43 Cls       :    -0.000000  s :    -0.000000
      pz      :    -0.000000  p :     0.000000
      px      :     0.000000
      py      :     0.000000
      dz2     :     0.000000  d :     0.000000
      dxz     :     0.000000
      dyz     :     0.000000
      dx2y2   :     0.000000
      dxy     :     0.000000

 44 Cls       :    -0.000000  s :    -0.000000
      pz      :    -0.000000  p :     0.000000
      px      :     0.000000
      py      :     0.000000
      dz2     :     0.000000  d :     0.000000
      dxz     :     0.000000
      dyz     :     0.000000
      dx2y2   :     0.000000
      dxy     :     0.000000

 45 Cls       :     0.000000  s :     0.000000
      pz      :    -0.000000  p :     0.000000
      px      :     0.000000
      py      :     0.000000
      dz2     :     0.000000  d :     0.000000
      dxz     :    -0.000000
      dyz     :     0.000000
      dx2y2   :    -0.000000
      dxy     :     0.000000

 46 C s       :    -0.000000  s :    -0.000000
      pz      :    -0.000000  p :    -0.000000
      px      :    -0.000000
      py      :    -0.000000
      dz2     :     0.000000  d :     0.000000
      dxz     :     0.000000
      dyz     :     0.000000
      dx2y2   :     0.000000
      dxy     :    -0.000000

 47 N s       :     0.000000  s :     0.000000
      pz      :     0.000000  p :     0.000000
      px      :    -0.000000
      py      :     0.000000
      dz2     :    -0.000000  d :    -0.000000
      dxz     :    -0.000000
      dyz     :    -0.000000
      dx2y2   :    -0.000000
      dxy     :     0.000000

 48 C s       :     0.000000  s :     0.000000
      pz      :    -0.000000  p :    -0.000000
      px      :    -0.000000
      py      :    -0.000000
      dz2     :     0.000000  d :     0.000000
      dxz     :     0.000000
      dyz     :     0.000000
      dx2y2   :     0.000000
      dxy     :     0.000000

 49 C s       :     0.000000  s :     0.000000
      pz      :     0.000000  p :     0.000000
      px      :     0.000000
      py      :     0.000000
      dz2     :    -0.000000  d :    -0.000000
      dxz     :    -0.000000
      dyz     :    -0.000000
      dx2y2   :    -0.000000
      dxy     :    -0.000000

 50 C s       :    -0.000000  s :    -0.000000
      pz      :    -0.000000  p :    -0.000000
      px      :     0.000000
      py      :    -0.000000
      dz2     :     0.000000  d :     0.000000
      dxz     :     0.000000
      dyz     :     0.000000
      dx2y2   :     0.000000
      dxy     :     0.000000

 51 C s       :    -0.000000  s :    -0.000000
      pz      :     0.000000  p :     0.000000
      px      :     0.000000
      py      :     0.000000
      dz2     :    -0.000000  d :    -0.000000
      dxz     :    -0.000000
      dyz     :    -0.000000
      dx2y2   :    -0.000000
      dxy     :    -0.000000

 52 C s       :    -0.000000  s :    -0.000000
      pz      :    -0.000000  p :    -0.000000
      px      :    -0.000000
      py      :    -0.000000
      dz2     :     0.000000  d :     0.000000
      dxz     :     0.000000
      dyz     :     0.000000
      dx2y2   :     0.000000
      dxy     :     0.000000

 53 C s       :     0.000000  s :     0.000000
      pz      :     0.000000  p :     0.000000
      px      :     0.000000
      py      :     0.000000
      dz2     :    -0.000000  d :    -0.000000
      dxz     :    -0.000000
      dyz     :    -0.000000
      dx2y2   :    -0.000000
      dxy     :    -0.000000

 54 C s       :    -0.000000  s :    -0.000000
      pz      :     0.000000  p :     0.000000
      px      :     0.000000
      py      :     0.000000
      dz2     :    -0.000000  d :    -0.000000
      dxz     :    -0.000000
      dyz     :    -0.000000
      dx2y2   :    -0.000000
      dxy     :    -0.000000

 55 C s       :     0.000000  s :     0.000000
      pz      :    -0.000000  p :    -0.000000
      px      :    -0.000000
      py      :    -0.000000
      dz2     :     0.000000  d :     0.000000
      dxz     :     0.000000
      dyz     :     0.000000
      dx2y2   :     0.000000
      dxy     :     0.000000

 56 C s       :     0.000000  s :     0.000000
      pz      :     0.000000  p :    -0.000000
      px      :    -0.000000
      py      :     0.000000
      dz2     :    -0.000000  d :    -0.000000
      dxz     :    -0.000000
      dyz     :    -0.000000
      dx2y2   :    -0.000000
      dxy     :    -0.000000

 57 C s       :    -0.000000  s :    -0.000000
      pz      :    -0.000000  p :    -0.000000
      px      :     0.000000
      py      :    -0.000000
      dz2     :     0.000000  d :     0.000000
      dxz     :    -0.000000
      dyz     :     0.000000
      dx2y2   :     0.000000
      dxy     :     0.000000

 58 C s       :     0.000000  s :     0.000000
      pz      :    -0.000000  p :     0.000000
      px      :     0.000000
      py      :     0.000000
      dz2     :    -0.000000  d :    -0.000000
      dxz     :    -0.000000
      dyz     :    -0.000000
      dx2y2   :    -0.000000
      dxy     :    -0.000000

 59 C s       :    -0.000000  s :    -0.000000
      pz      :    -0.000000  p :    -0.000000
      px      :     0.000000
      py      :    -0.000000
      dz2     :     0.000000  d :     0.000000
      dxz     :    -0.000000
      dyz     :     0.000000
      dx2y2   :     0.000000
      dxy     :    -0.000000

 60 C s       :    -0.000000  s :    -0.000000
      pz      :    -0.000000  p :    -0.000000
      px      :    -0.000000
      py      :    -0.000000
      dz2     :     0.000000  d :     0.000000
      dxz     :     0.000000
      dyz     :     0.000000
      dx2y2   :     0.000000
      dxy     :     0.000000

 61 C s       :     0.000000  s :     0.000000
      pz      :     0.000000  p :     0.000000
      px      :     0.000000
      py      :     0.000000
      dz2     :    -0.000000  d :    -0.000000
      dxz     :    -0.000000
      dyz     :    -0.000000
      dx2y2   :     0.000000
      dxy     :    -0.000000

 62 C s       :    -0.000000  s :    -0.000000
      pz      :    -0.000000  p :    -0.000000
      px      :    -0.000000
      py      :    -0.000000
      dz2     :     0.000000  d :     0.000000
      dxz     :     0.000000
      dyz     :    -0.000000
      dx2y2   :    -0.000000
      dxy     :     0.000000

 63 C s       :     0.000000  s :     0.000000
      pz      :    -0.000000  p :     0.000000
      px      :     0.000000
      py      :     0.000000
      dz2     :    -0.000000  d :    -0.000000
      dxz     :    -0.000000
      dyz     :    -0.000000
      dx2y2   :    -0.000000
      dxy     :    -0.000000

 64 C s       :    -0.000000  s :    -0.000000
      pz      :    -0.000000  p :    -0.000000
      px      :    -0.000000
      py      :     0.000000
      dz2     :     0.000000  d :     0.000000
      dxz     :     0.000000
      dyz     :    -0.000000
      dx2y2   :     0.000000
      dxy     :     0.000000

 65 Cls       :     0.000000  s :     0.000000
      pz      :    -0.000000  p :    -0.000000
      px      :     0.000000
      py      :     0.000000
      dz2     :    -0.000000  d :    -0.000000
      dxz     :    -0.000000
      dyz     :    -0.000000
      dx2y2   :    -0.000000
      dxy     :     0.000000

 66 Cls       :    -0.000000  s :    -0.000000
      pz      :     0.000000  p :    -0.000000
      px      :     0.000000
      py      :    -0.000000
      dz2     :    -0.000000  d :    -0.000000
      dxz     :    -0.000000
      dyz     :    -0.000000
      dx2y2   :    -0.000000
      dxy     :    -0.000000

 67 Cls       :     0.000000  s :     0.000000
      pz      :    -0.000000  p :    -0.000000
      px      :     0.000000
      py      :    -0.000000
      dz2     :    -0.000000  d :    -0.000000
      dxz     :    -0.000000
      dyz     :    -0.000000
      dx2y2   :     0.000000
      dxy     :    -0.000000

 68 Cls       :     0.000000  s :     0.000000
      pz      :    -0.000000  p :    -0.000000
      px      :    -0.000000
      py      :     0.000000
      dz2     :    -0.000000  d :    -0.000000
      dxz     :    -0.000000
      dyz     :    -0.000000
      dx2y2   :     0.000000
      dxy     :    -0.000000

 69 Cls       :     0.000000  s :     0.000000
      pz      :     0.000000  p :    -0.000000
      px      :    -0.000000
      py      :    -0.000000
      dz2     :    -0.000000  d :    -0.000000
      dxz     :    -0.000000
      dyz     :    -0.000000
      dx2y2   :    -0.000000
      dxy     :    -0.000000

 70 Cls       :    -0.000000  s :    -0.000000
      pz      :    -0.000000  p :    -0.000000
      px      :    -0.000000
      py      :     0.000000
      dz2     :    -0.000000  d :    -0.000000
      dxz     :     0.000000
      dyz     :    -0.000000
      dx2y2   :     0.000000
      dxy     :    -0.000000

 71 Cls       :     0.000000  s :     0.000000
      pz      :     0.000000  p :    -0.000000
      px      :     0.000000
      py      :    -0.000000
      dz2     :    -0.000000  d :    -0.000000
      dxz     :    -0.000000
      dyz     :    -0.000000
      dx2y2   :    -0.000000
      dxy     :    -0.000000

 72 Cls       :    -0.000000  s :    -0.000000
      pz      :    -0.000000  p :    -0.000000
      px      :    -0.000000
      py      :    -0.000000
      dz2     :    -0.000000  d :    -0.000000
      dxz     :    -0.000000
      dyz     :    -0.000000
      dx2y2   :    -0.000000
      dxy     :    -0.000000

 73 C s       :    -0.000000  s :    -0.000000
      pz      :    -0.000000  p :     0.000000
      px      :    -0.000000
      py      :     0.000000
      dz2     :     0.000000  d :     0.000000
      dxz     :     0.000000
      dyz     :     0.000000
      dx2y2   :     0.000000
      dxy     :     0.000000

 74 H s       :    -0.000000  s :    -0.000000
      pz      :     0.000000  p :     0.000000
      px      :     0.000000
      py      :     0.000000

 75 H s       :    -0.000000  s :    -0.000000
      pz      :     0.000000  p :     0.000000
      px      :     0.000000
      py      :     0.000000

 76 H s       :     0.000000  s :     0.000000
      pz      :    -0.000000  p :    -0.000000
      px      :    -0.000000
      py      :    -0.000000

 77 H s       :     0.000000  s :     0.000000
      pz      :    -0.000000  p :    -0.000000
      px      :    -0.000000
      py      :    -0.000000

 78 H s       :     0.000000  s :     0.000000
      pz      :    -0.000000  p :     0.000000
      px      :     0.000000
      py      :     0.000000

 79 H s       :     0.000000  s :     0.000000
      pz      :    -0.000000  p :    -0.000000
      px      :    -0.000000
      py      :     0.000000

 80 H s       :    -0.000000  s :    -0.000000
      pz      :    -0.000000  p :    -0.000000
      px      :    -0.000000
      py      :    -0.000000

 81 H s       :    -0.000000  s :    -0.000000
      pz      :    -0.000000  p :    -0.000000
      px      :    -0.000000
      py      :    -0.000000

 82 H s       :    -0.000000  s :    -0.000000
      pz      :     0.000000  p :     0.000000
      px      :     0.000000
      py      :     0.000000

 83 H s       :    -0.000000  s :    -0.000000
      pz      :    -0.000000  p :    -0.000000
      px      :    -0.000000
      py      :     0.000000

 84 H s       :     0.000000  s :     0.000000
      pz      :    -0.000000  p :    -0.000000
      px      :     0.000000
      py      :    -0.000000

 85 H s       :    -0.000000  s :    -0.000000
      pz      :     0.000000  p :     0.000000
      px      :     0.000000
      py      :     0.000000

 86 H s       :     0.000000  s :     0.000000
      pz      :    -0.000000  p :    -0.000000
      px      :    -0.000000
      py      :     0.000000

 87 H s       :    -0.000000  s :    -0.000000
      pz      :     0.000000  p :    -0.000000
      px      :    -0.000000
      py      :    -0.000000

 88 H s       :     0.000000  s :     0.000000
      pz      :     0.000000  p :    -0.000000
      px      :    -0.000000
      py      :    -0.000000

 89 H s       :     0.000000  s :     0.000000
      pz      :    -0.000000  p :    -0.000000
      px      :    -0.000000
      py      :    -0.000000

 90 H s       :     0.000000  s :     0.000000
      pz      :     0.000000  p :    -0.000000
      px      :     0.000000
      py      :    -0.000000

 91 H s       :    -0.000000  s :    -0.000000
      pz      :     0.000000  p :     0.000000
      px      :    -0.000000
      py      :     0.000000

 92 H s       :     0.000000  s :     0.000000
      pz      :    -0.000000  p :     0.000000
      px      :    -0.000000
      py      :     0.000000

 93 H s       :     0.000000  s :     0.000000
      pz      :    -0.000000  p :    -0.000000
      px      :     0.000000
      py      :     0.000000

 94 H s       :     0.000000  s :     0.000000
      pz      :    -0.000000  p :     0.000000
      px      :     0.000000
      py      :     0.000000

 95 H s       :     0.000000  s :     0.000000
      pz      :    -0.000000  p :    -0.000000
      px      :     0.000000
      py      :    -0.000000

 96 H s       :     0.000000  s :     0.000000
      pz      :     0.000000  p :     0.000000
      px      :     0.000000
      py      :     0.000000

 97 H s       :    -0.000000  s :    -0.000000
      pz      :    -0.000000  p :    -0.000000
      px      :     0.000000
      py      :    -0.000000

 98 H s       :     0.000000  s :     0.000000
      pz      :     0.000000  p :     0.000000
      px      :     0.000000
      py      :     0.000000



                     *******************************
                     * LOEWDIN POPULATION ANALYSIS *
                     *******************************

-------------------------------------------
LOEWDIN ATOMIC CHARGES AND SPIN POPULATIONS
-------------------------------------------
   0 C :   -0.062977    0.000000
   1 C :   -0.035219   -0.000000
   2 C :   -0.043443    0.000000
   3 C :   -0.088872   -0.000000
   4 C :    0.035045    0.000000
   5 C :   -0.091136   -0.000000
   6 N :   -0.013137    0.000000
   7 C :    0.034460   -0.000000
   8 C :    0.011563    0.000000
   9 C :   -0.080031   -0.000000
  10 C :   -0.079141    0.000000
  11 C :   -0.014263   -0.000000
  12 C :   -0.078427   -0.000000
  13 C :   -0.079690    0.000000
  14 C :   -0.089640    0.000000
  15 C :   -0.062321   -0.000000
  16 C :   -0.035319    0.000000
  17 C :   -0.045106   -0.000000
  18 C :   -0.091101    0.000000
  19 C :    0.041184    0.000000
  20 N :   -0.115861   -0.000000
  21 C :   -0.021724    0.000000
  22 C :   -0.056481   -0.000000
  23 C :   -0.057028    0.000000
  24 C :   -0.098497   -0.000000
  25 C :   -0.024105    0.000000
  26 C :   -0.041332   -0.000000
  27 C :   -0.042359   -0.000000
  28 C :   -0.066678    0.000000
  29 C :   -0.091051   -0.000000
  30 C :   -0.080895    0.000000
  31 C :   -0.091301   -0.000000
  32 C :   -0.067074    0.000000
  33 C :   -0.065845    0.000000
  34 C :   -0.090695   -0.000000
  35 C :   -0.080349    0.000000
  36 C :   -0.090695   -0.000000
  37 C :   -0.066128    0.000000
  38 Cl:    0.075499    0.000000
  39 Cl:    0.069349    0.000000
  40 Cl:    0.070952    0.000000
  41 Cl:    0.059084    0.000000
  42 Cl:    0.071217    0.000000
  43 Cl:    0.067589    0.000000
  44 Cl:    0.065447    0.000000
  45 Cl:    0.065689    0.000000
  46 C :    0.040525   -0.000000
  47 N :   -0.115981    0.000000
  48 C :   -0.021917   -0.000000
  49 C :   -0.056230    0.000000
  50 C :   -0.057377   -0.000000
  51 C :   -0.098937    0.000000
  52 C :   -0.025730   -0.000000
  53 C :   -0.041120    0.000000
  54 C :   -0.042210    0.000000
  55 C :   -0.066882   -0.000000
  56 C :   -0.091240    0.000000
  57 C :   -0.081196   -0.000000
  58 C :   -0.091348    0.000000
  59 C :   -0.067246   -0.000000
  60 C :   -0.066002   -0.000000
  61 C :   -0.090553    0.000000
  62 C :   -0.080596   -0.000000
  63 C :   -0.090817    0.000000
  64 C :   -0.066292   -0.000000
  65 Cl:    0.074271   -0.000000
  66 Cl:    0.069489   -0.000000
  67 Cl:    0.070360   -0.000000
  68 Cl:    0.059732   -0.000000
  69 Cl:    0.071386   -0.000000
  70 Cl:    0.066351   -0.000000
  71 Cl:    0.065088   -0.000000
  72 Cl:    0.065601   -0.000000
  73 C :   -0.216788    0.000000
  74 H :    0.086825   -0.000000
  75 H :    0.102313   -0.000000
  76 H :    0.095326   -0.000000
  77 H :    0.094959    0.000000
  78 H :    0.093605    0.000000
  79 H :    0.085894   -0.000000
  80 H :    0.086156   -0.000000
  81 H :    0.093654   -0.000000
  82 H :    0.094779    0.000000
  83 H :    0.086173    0.000000
  84 H :    0.102565    0.000000
  85 H :    0.095131    0.000000
  86 H :    0.098417    0.000000
  87 H :    0.108993    0.000000
  88 H :    0.108827    0.000000
  89 H :    0.108923    0.000000
  90 H :    0.109023    0.000000
  91 H :    0.097764   -0.000000
  92 H :    0.108835   -0.000000
  93 H :    0.108790    0.000000
  94 H :    0.108961   -0.000000
  95 H :    0.108839   -0.000000
  96 H :    0.087945    0.000000
  97 H :    0.095314   -0.000000
  98 H :    0.088490    0.000000

----------------------------------------------------
LOEWDIN REDUCED ORBITAL CHARGES AND SPIN POPULATIONS
----------------------------------------------------
CHARGE
  0 C s       :     2.894570  s :     2.894570
      pz      :     1.004561  p :     3.084263
      px      :     1.046539
      py      :     1.033162
      dz2     :     0.008696  d :     0.084144
      dxz     :     0.018190
      dyz     :     0.011191
      dx2y2   :     0.024491
      dxy     :     0.021577

  1 C s       :     2.868018  s :     2.868018
      pz      :     1.017596  p :     3.066501
      px      :     1.021598
      py      :     1.027307
      dz2     :     0.013987  d :     0.100701
      dxz     :     0.018474
      dyz     :     0.015181
      dx2y2   :     0.025096
      dxy     :     0.027963

  2 C s       :     2.897190  s :     2.897190
      pz      :     0.988462  p :     3.062907
      px      :     1.058213
      py      :     1.016231
      dz2     :     0.008928  d :     0.083346
      dxz     :     0.015079
      dyz     :     0.013347
      dx2y2   :     0.024122
      dxy     :     0.021871

  3 C s       :     2.896904  s :     2.896904
      pz      :     1.009603  p :     3.110138
      px      :     1.048911
      py      :     1.051624
      dz2     :     0.008174  d :     0.081830
      dxz     :     0.019007
      dyz     :     0.010037
      dx2y2   :     0.023767
      dxy     :     0.020846

  4 C s       :     2.854502  s :     2.854502
      pz      :     1.002767  p :     2.971309
      px      :     0.957337
      py      :     1.011205
      dz2     :     0.018256  d :     0.139144
      dxz     :     0.032376
      dyz     :     0.020101
      dx2y2   :     0.030542
      dxy     :     0.037870

  5 C s       :     2.896707  s :     2.896707
      pz      :     1.012584  p :     3.112637
      px      :     1.062806
      py      :     1.037247
      dz2     :     0.008784  d :     0.081793
      dxz     :     0.015383
      dyz     :     0.013962
      dx2y2   :     0.023404
      dxy     :     0.020260

  6 N s       :     3.056600  s :     3.056600
      pz      :     1.558816  p :     3.855803
      px      :     1.146925
      py      :     1.150062
      dz2     :     0.005294  d :     0.100733
      dxz     :     0.013207
      dyz     :     0.011395
      dx2y2   :     0.035500
      dxy     :     0.035338

  7 C s       :     2.854516  s :     2.854516
      pz      :     0.994559  p :     2.971782
      px      :     0.947976
      py      :     1.029247
      dz2     :     0.016365  d :     0.139242
      dxz     :     0.032165
      dyz     :     0.018468
      dx2y2   :     0.033980
      dxy     :     0.038264

  8 C s       :     2.854096  s :     2.854096
      pz      :     1.046087  p :     2.997720
      px      :     1.039649
      py      :     0.911983
      dz2     :     0.024058  d :     0.136621
      dxz     :     0.014115
      dyz     :     0.042138
      dx2y2   :     0.034588
      dxy     :     0.021723

  9 C s       :     2.900224  s :     2.900224
      pz      :     1.017668  p :     3.097369
      px      :     1.017050
      py      :     1.062650
      dz2     :     0.012262  d :     0.082438
      dxz     :     0.009510
      dyz     :     0.024121
      dx2y2   :     0.016464
      dxy     :     0.020081

 10 C s       :     2.898246  s :     2.898246
      pz      :     1.026645  p :     3.097368
      px      :     1.015686
      py      :     1.055037
      dz2     :     0.012088  d :     0.083528
      dxz     :     0.009633
      dyz     :     0.022907
      dx2y2   :     0.018687
      dxy     :     0.020211

 11 C s       :     2.877218  s :     2.877218
      pz      :     1.016814  p :     3.035819
      px      :     0.991229
      py      :     1.027776
      dz2     :     0.018491  d :     0.101227
      dxz     :     0.014234
      dyz     :     0.025773
      dx2y2   :     0.021499
      dxy     :     0.021230

 12 C s       :     2.898218  s :     2.898218
      pz      :     1.029647  p :     3.096703
      px      :     1.011737
      py      :     1.055319
      dz2     :     0.012384  d :     0.083505
      dxz     :     0.009791
      dyz     :     0.023474
      dx2y2   :     0.018048
      dxy     :     0.019808

 13 C s       :     2.900201  s :     2.900201
      pz      :     1.019640  p :     3.097036
      px      :     1.016009
      py      :     1.061386
      dz2     :     0.011607  d :     0.082454
      dxz     :     0.009307
      dyz     :     0.024471
      dx2y2   :     0.017034
      dxy     :     0.020036

 14 C s       :     2.896516  s :     2.896516
      pz      :     1.007725  p :     3.111457
      px      :     1.049709
      py      :     1.054023
      dz2     :     0.007796  d :     0.081667
      dxz     :     0.018279
      dyz     :     0.008918
      dx2y2   :     0.023957
      dxy     :     0.022717

 15 C s       :     2.894555  s :     2.894555
      pz      :     0.996583  p :     3.083600
      px      :     1.055945
      py      :     1.031072
      dz2     :     0.007752  d :     0.084166
      dxz     :     0.015018
      dyz     :     0.012641
      dx2y2   :     0.023998
      dxy     :     0.024758

 16 C s       :     2.868046  s :     2.868046
      pz      :     1.011736  p :     3.066572
      px      :     1.021251
      py      :     1.033585
      dz2     :     0.012439  d :     0.100700
      dxz     :     0.016790
      dyz     :     0.015044
      dx2y2   :     0.027759
      dxy     :     0.028668

 17 C s       :     2.897209  s :     2.897209
      pz      :     0.980857  p :     3.064581
      px      :     1.040403
      py      :     1.043321
      dz2     :     0.007955  d :     0.083316
      dxz     :     0.017730
      dyz     :     0.009048
      dx2y2   :     0.024996
      dxy     :     0.023588

 18 C s       :     2.897287  s :     2.897287
      pz      :     1.007521  p :     3.111814
      px      :     1.066440
      py      :     1.037852
      dz2     :     0.007523  d :     0.082000
      dxz     :     0.014545
      dyz     :     0.012828
      dx2y2   :     0.024441
      dxy     :     0.022663

 19 C s       :     2.855745  s :     2.855745
      pz      :     0.945742  p :     2.955758
      px      :     0.990997
      py      :     1.019019
      dz2     :     0.015641  d :     0.147313
      dxz     :     0.024221
      dyz     :     0.021667
      dx2y2   :     0.043633
      dxy     :     0.042151

 20 N s       :     3.216863  s :     3.216863
      pz      :     1.208161  p :     3.811080
      px      :     1.120480
      py      :     1.482439
      dz2     :     0.011005  d :     0.087918
      dxz     :     0.020007
      dyz     :     0.008602
      dx2y2   :     0.017948
      dxy     :     0.030355

 21 C s       :     2.898865  s :     2.898865
      pz      :     0.960975  p :     2.960029
      px      :     0.985479
      py      :     1.013575
      dz2     :     0.013851  d :     0.162830
      dxz     :     0.029118
      dyz     :     0.018054
      dx2y2   :     0.047465
      dxy     :     0.054342

 22 C s       :     2.876025  s :     2.876025
      pz      :     1.012049  p :     3.075213
      px      :     1.029435
      py      :     1.033728
      dz2     :     0.010248  d :     0.105244
      dxz     :     0.016922
      dyz     :     0.013685
      dx2y2   :     0.033268
      dxy     :     0.031121

 23 C s       :     2.915602  s :     2.915602
      pz      :     0.992194  p :     3.024911
      px      :     1.089546
      py      :     0.943171
      dz2     :     0.011409  d :     0.116515
      dxz     :     0.019656
      dyz     :     0.017233
      dx2y2   :     0.035450
      dxy     :     0.032767

 24 C s       :     2.898479  s :     2.898479
      pz      :     1.017370  p :     3.117766
      px      :     1.053276
      py      :     1.047120
      dz2     :     0.007313  d :     0.082251
      dxz     :     0.012316
      dyz     :     0.012697
      dx2y2   :     0.023666
      dxy     :     0.026258

 25 C s       :     2.877577  s :     2.877577
      pz      :     1.014412  p :     3.054582
      px      :     1.018134
      py      :     1.022036
      dz2     :     0.023120  d :     0.091946
      dxz     :     0.029247
      dyz     :     0.015510
      dx2y2   :     0.011447
      dxy     :     0.012622

 26 C s       :     2.871320  s :     2.871320
      pz      :     1.024772  p :     3.065509
      px      :     1.028764
      py      :     1.011972
      dz2     :     0.027493  d :     0.104503
      dxz     :     0.030520
      dyz     :     0.016988
      dx2y2   :     0.015498
      dxy     :     0.014004

 27 C s       :     2.871665  s :     2.871665
      pz      :     1.024764  p :     3.066229
      px      :     1.006491
      py      :     1.034974
      dz2     :     0.027170  d :     0.104465
      dxz     :     0.015427
      dyz     :     0.031236
      dx2y2   :     0.015603
      dxy     :     0.015029

 28 C s       :     2.914845  s :     2.914845
      pz      :     0.978882  p :     3.037357
      px      :     1.031362
      py      :     1.027113
      dz2     :     0.028095  d :     0.114477
      dxz     :     0.016476
      dyz     :     0.036138
      dx2y2   :     0.016869
      dxy     :     0.016900

 29 C s       :     2.898466  s :     2.898466
      pz      :     1.036190  p :     3.109102
      px      :     1.010016
      py      :     1.062896
      dz2     :     0.025675  d :     0.083482
      dxz     :     0.016584
      dyz     :     0.025419
      dx2y2   :     0.008096
      dxy     :     0.007709

 30 C s       :     2.909832  s :     2.909832
      pz      :     0.983065  p :     3.053026
      px      :     1.004364
      py      :     1.065596
      dz2     :     0.030291  d :     0.118037
      dxz     :     0.019649
      dyz     :     0.035238
      dx2y2   :     0.016025
      dxy     :     0.016833

 31 C s       :     2.898341  s :     2.898341
      pz      :     1.058898  p :     3.109471
      px      :     1.008039
      py      :     1.042535
      dz2     :     0.020049  d :     0.083488
      dxz     :     0.010557
      dyz     :     0.024839
      dx2y2   :     0.014234
      dxy     :     0.013809

 32 C s       :     2.915231  s :     2.915231
      pz      :     1.083029  p :     3.037496
      px      :     1.014695
      py      :     0.939771
      dz2     :     0.030124  d :     0.114346
      dxz     :     0.017294
      dyz     :     0.033444
      dx2y2   :     0.017592
      dxy     :     0.015892

 33 C s       :     2.914659  s :     2.914659
      pz      :     0.985222  p :     3.036740
      px      :     1.044740
      py      :     1.006778
      dz2     :     0.028550  d :     0.114447
      dxz     :     0.035982
      dyz     :     0.017386
      dx2y2   :     0.016096
      dxy     :     0.016434

 34 C s       :     2.898387  s :     2.898387
      pz      :     1.036934  p :     3.108831
      px      :     1.064912
      py      :     1.006986
      dz2     :     0.026114  d :     0.083476
      dxz     :     0.026913
      dyz     :     0.015588
      dx2y2   :     0.008054
      dxy     :     0.006806

 35 C s       :     2.909807  s :     2.909807
      pz      :     0.974395  p :     3.052500
      px      :     1.054587
      py      :     1.023518
      dz2     :     0.031287  d :     0.118042
      dxz     :     0.038769
      dyz     :     0.016152
      dx2y2   :     0.015948
      dxy     :     0.015886

 36 C s       :     2.898243  s :     2.898243
      pz      :     1.058892  p :     3.108971
      px      :     1.042088
      py      :     1.007990
      dz2     :     0.020857  d :     0.083482
      dxz     :     0.026732
      dyz     :     0.009246
      dx2y2   :     0.013469
      dxy     :     0.013177

 37 C s       :     2.915121  s :     2.915121
      pz      :     1.085699  p :     3.036723
      px      :     0.939598
      py      :     1.011426
      dz2     :     0.030569  d :     0.114284
      dxz     :     0.033935
      dyz     :     0.017329
      dx2y2   :     0.016288
      dxy     :     0.016163

 38 Cls       :     5.798443  s :     5.798443
      pz      :     3.816190  p :    11.091429
      px      :     3.934421
      py      :     3.340818
      dz2     :     0.004256  d :     0.034629
      dxz     :     0.000902
      dyz     :     0.011765
      dx2y2   :     0.013772
      dxy     :     0.003934

 39 Cls       :     5.799560  s :     5.799560
      pz      :     3.929054  p :    11.096448
      px      :     3.858295
      py      :     3.309099
      dz2     :     0.006075  d :     0.034643
      dxz     :     0.000801
      dyz     :     0.004246
      dx2y2   :     0.013314
      dxy     :     0.010207

 40 Cls       :     5.799369  s :     5.799369
      pz      :     3.496058  p :    11.095123
      px      :     3.918890
      py      :     3.680175
      dz2     :     0.008311  d :     0.034556
      dxz     :     0.004493
      dyz     :     0.016241
      dx2y2   :     0.003105
      dxy     :     0.002406

 41 Cls       :     5.807447  s :     5.807447
      pz      :     3.800312  p :    11.101374
      px      :     3.586373
      py      :     3.714688
      dz2     :     0.003871  d :     0.032095
      dxz     :     0.008033
      dyz     :     0.004597
      dx2y2   :     0.003210
      dxy     :     0.012384

 42 Cls       :     5.799182  s :     5.799182
      pz      :     3.515926  p :    11.095055
      px      :     3.762571
      py      :     3.816558
      dz2     :     0.007335  d :     0.034546
      dxz     :     0.012193
      dyz     :     0.008974
      dx2y2   :     0.002391
      dxy     :     0.003653

 43 Cls       :     5.799601  s :     5.799601
      pz      :     3.934609  p :    11.098269
      px      :     3.332972
      py      :     3.830687
      dz2     :     0.006250  d :     0.034541
      dxz     :     0.003827
      dyz     :     0.000751
      dx2y2   :     0.012479
      dxy     :     0.011233

 44 Cls       :     5.797551  s :     5.797551
      pz      :     3.468261  p :    11.103097
      px      :     3.811487
      py      :     3.823349
      dz2     :     0.009031  d :     0.033904
      dxz     :     0.010033
      dyz     :     0.009899
      dx2y2   :     0.002207
      dxy     :     0.002735

 45 Cls       :     5.797493  s :     5.797493
      pz      :     3.426543  p :    11.102915
      px      :     3.759347
      py      :     3.917025
      dz2     :     0.010872  d :     0.033902
      dxz     :     0.014015
      dyz     :     0.005178
      dx2y2   :     0.001921
      dxy     :     0.001917

 46 C s       :     2.855642  s :     2.855642
      pz      :     0.941604  p :     2.956516
      px      :     1.035105
      py      :     0.979807
      dz2     :     0.014004  d :     0.147317
      dxz     :     0.020138
      dyz     :     0.023521
      dx2y2   :     0.040982
      dxy     :     0.048671

 47 N s       :     3.216778  s :     3.216778
      pz      :     1.192799  p :     3.811286
      px      :     1.422093
      py      :     1.196395
      dz2     :     0.010562  d :     0.087917
      dxz     :     0.011876
      dyz     :     0.016133
      dx2y2   :     0.026990
      dxy     :     0.022356

 48 C s       :     2.898834  s :     2.898834
      pz      :     0.960994  p :     2.960240
      px      :     1.058717
      py      :     0.940529
      dz2     :     0.012778  d :     0.162843
      dxz     :     0.026121
      dyz     :     0.018719
      dx2y2   :     0.060849
      dxy     :     0.044376

 49 C s       :     2.876026  s :     2.876026
      pz      :     1.010825  p :     3.074894
      px      :     1.029549
      py      :     1.034521
      dz2     :     0.009664  d :     0.105310
      dxz     :     0.015273
      dyz     :     0.013738
      dx2y2   :     0.038376
      dxy     :     0.028259

 50 C s       :     2.915621  s :     2.915621
      pz      :     0.994650  p :     3.025275
      px      :     0.987615
      py      :     1.043010
      dz2     :     0.010490  d :     0.116481
      dxz     :     0.018812
      dyz     :     0.016536
      dx2y2   :     0.034466
      dxy     :     0.036178

 51 C s       :     2.898419  s :     2.898419
      pz      :     1.014826  p :     3.118226
      px      :     1.042726
      py      :     1.060673
      dz2     :     0.006900  d :     0.082292
      dxz     :     0.015639
      dyz     :     0.007943
      dx2y2   :     0.026282
      dxy     :     0.025529

 52 C s       :     2.877307  s :     2.877307
      pz      :     1.014688  p :     3.056516
      px      :     1.018377
      py      :     1.023451
      dz2     :     0.021728  d :     0.091907
      dxz     :     0.027829
      dyz     :     0.017120
      dx2y2   :     0.010655
      dxy     :     0.014576

 53 C s       :     2.871318  s :     2.871318
      pz      :     1.025805  p :     3.065242
      px      :     1.004027
      py      :     1.035410
      dz2     :     0.028858  d :     0.104560
      dxz     :     0.014057
      dyz     :     0.032750
      dx2y2   :     0.015757
      dxy     :     0.013138

 54 C s       :     2.871663  s :     2.871663
      pz      :     1.025952  p :     3.066028
      px      :     1.030720
      py      :     1.009356
      dz2     :     0.028533  d :     0.104518
      dxz     :     0.030732
      dyz     :     0.015147
      dx2y2   :     0.016594
      dxy     :     0.013513

 55 C s       :     2.914841  s :     2.914841
      pz      :     0.970917  p :     3.037576
      px      :     1.056459
      py      :     1.010200
      dz2     :     0.028883  d :     0.114466
      dxz     :     0.037278
      dyz     :     0.015544
      dx2y2   :     0.016071
      dxy     :     0.016690

 56 C s       :     2.898440  s :     2.898440
      pz      :     1.037099  p :     3.109301
      px      :     1.068780
      py      :     1.003422
      dz2     :     0.026077  d :     0.083500
      dxz     :     0.027507
      dyz     :     0.014802
      dx2y2   :     0.008961
      dxy     :     0.006153

 57 C s       :     2.909786  s :     2.909786
      pz      :     0.990244  p :     3.053376
      px      :     1.044400
      py      :     1.018732
      dz2     :     0.030507  d :     0.118034
      dxz     :     0.040414
      dyz     :     0.015111
      dx2y2   :     0.015904
      dxy     :     0.016097

 58 C s       :     2.898339  s :     2.898339
      pz      :     1.061558  p :     3.109508
      px      :     1.042738
      py      :     1.005211
      dz2     :     0.020201  d :     0.083501
      dxz     :     0.027762
      dyz     :     0.007364
      dx2y2   :     0.014563
      dxy     :     0.013612

 59 C s       :     2.915232  s :     2.915232
      pz      :     1.082568  p :     3.037667
      px      :     0.938454
      py      :     1.016645
      dz2     :     0.030327  d :     0.114347
      dxz     :     0.035578
      dyz     :     0.015892
      dx2y2   :     0.017100
      dxy     :     0.015450

 60 C s       :     2.914648  s :     2.914648
      pz      :     0.979113  p :     3.036913
      px      :     1.023912
      py      :     1.033888
      dz2     :     0.029285  d :     0.114441
      dxz     :     0.015238
      dyz     :     0.038474
      dx2y2   :     0.015498
      dxy     :     0.015946

 61 C s       :     2.898404  s :     2.898404
      pz      :     1.037567  p :     3.108666
      px      :     1.003931
      py      :     1.067168
      dz2     :     0.026545  d :     0.083483
      dxz     :     0.015647
      dyz     :     0.027221
      dx2y2   :     0.008051
      dxy     :     0.006019

 62 C s       :     2.909778  s :     2.909778
      pz      :     0.978939  p :     3.052777
      px      :     1.009934
      py      :     1.063904
      dz2     :     0.031606  d :     0.118041
      dxz     :     0.017165
      dyz     :     0.038301
      dx2y2   :     0.015053
      dxy     :     0.015916

 63 C s       :     2.898217  s :     2.898217
      pz      :     1.061178  p :     3.109103
      px      :     1.003542
      py      :     1.044383
      dz2     :     0.021066  d :     0.083498
      dxz     :     0.008781
      dyz     :     0.027042
      dx2y2   :     0.013790
      dxy     :     0.012819

 64 C s       :     2.915113  s :     2.915113
      pz      :     1.086578  p :     3.036930
      px      :     1.016603
      py      :     0.933749
      dz2     :     0.030820  d :     0.114249
      dxz     :     0.016404
      dyz     :     0.035507
      dx2y2   :     0.017231
      dxy     :     0.014288

 65 Cls       :     5.798474  s :     5.798474
      pz      :     3.842791  p :    11.092658
      px      :     3.484820
      py      :     3.765047
      dz2     :     0.004446  d :     0.034597
      dxz     :     0.008521
      dyz     :     0.002807
      dx2y2   :     0.006321
      dxy     :     0.012502

 66 Cls       :     5.799546  s :     5.799546
      pz      :     3.920464  p :    11.096310
      px      :     3.302342
      py      :     3.873504
      dz2     :     0.005824  d :     0.034656
      dxz     :     0.005084
      dyz     :     0.000612
      dx2y2   :     0.013845
      dxy     :     0.009291

 67 Cls       :     5.799359  s :     5.799359
      pz      :     3.456045  p :    11.095739
      px      :     3.793311
      py      :     3.846383
      dz2     :     0.009947  d :     0.034543
      dxz     :     0.011618
      dyz     :     0.008540
      dx2y2   :     0.001768
      dxy     :     0.002669

 68 Cls       :     5.807385  s :     5.807385
      pz      :     3.823930  p :    11.100754
      px      :     3.928267
      py      :     3.348557
      dz2     :     0.004062  d :     0.032129
      dxz     :     0.000670
      dyz     :     0.010793
      dx2y2   :     0.013058
      dxy     :     0.003547

 69 Cls       :     5.799156  s :     5.799156
      pz      :     3.482361  p :    11.094901
      px      :     3.917213
      py      :     3.695326
      dz2     :     0.008523  d :     0.034558
      dxz     :     0.004896
      dyz     :     0.016036
      dx2y2   :     0.002799
      dxy     :     0.002304

 70 Cls       :     5.799593  s :     5.799593
      pz      :     3.931494  p :    11.099562
      px      :     3.890284
      py      :     3.277784
      dz2     :     0.006163  d :     0.034493
      dxz     :     0.000484
      dyz     :     0.004299
      dx2y2   :     0.014755
      dxy     :     0.008793

 71 Cls       :     5.797520  s :     5.797520
      pz      :     3.491018  p :    11.103485
      px      :     3.700019
      py      :     3.912448
      dz2     :     0.007979  d :     0.033907
      dxz     :     0.015611
      dyz     :     0.004763
      dx2y2   :     0.002833
      dxy     :     0.002721

 72 Cls       :     5.797463  s :     5.797463
      pz      :     3.438269  p :    11.103021
      px      :     3.869502
      py      :     3.795250
      dz2     :     0.010182  d :     0.033914
      dxz     :     0.007662
      dyz     :     0.011952
      dx2y2   :     0.001841
      dxy     :     0.002277

 73 C s       :     2.913526  s :     2.913526
      pz      :     1.105553  p :     3.241250
      px      :     1.106315
      py      :     1.029382
      dz2     :     0.010383  d :     0.062011
      dxz     :     0.011011
      dyz     :     0.012537
      dx2y2   :     0.016338
      dxy     :     0.011742

 74 H s       :     0.871419  s :     0.871419
      pz      :     0.014471  p :     0.041756
      px      :     0.006403
      py      :     0.020883

 75 H s       :     0.853616  s :     0.853616
      pz      :     0.012889  p :     0.044071
      px      :     0.022726
      py      :     0.008456

 76 H s       :     0.862059  s :     0.862059
      pz      :     0.014273  p :     0.042614
      px      :     0.006287
      py      :     0.022054

 77 H s       :     0.862429  s :     0.862429
      pz      :     0.013758  p :     0.042612
      px      :     0.019918
      py      :     0.008936

 78 H s       :     0.864417  s :     0.864417
      pz      :     0.016105  p :     0.041979
      px      :     0.014301
      py      :     0.011572

 79 H s       :     0.873222  s :     0.873222
      pz      :     0.017043  p :     0.040884
      px      :     0.013244
      py      :     0.010596

 80 H s       :     0.872951  s :     0.872951
      pz      :     0.015879  p :     0.040893
      px      :     0.014010
      py      :     0.011004

 81 H s       :     0.864368  s :     0.864368
      pz      :     0.017510  p :     0.041978
      px      :     0.013325
      py      :     0.011143

 82 H s       :     0.862577  s :     0.862577
      pz      :     0.012718  p :     0.042644
      px      :     0.006562
      py      :     0.023364

 83 H s       :     0.872106  s :     0.872106
      pz      :     0.013056  p :     0.041721
      px      :     0.017872
      py      :     0.010793

 84 H s       :     0.853316  s :     0.853316
      pz      :     0.012063  p :     0.044119
      px      :     0.007231
      py      :     0.024824

 85 H s       :     0.862321  s :     0.862321
      pz      :     0.013140  p :     0.042548
      px      :     0.018718
      py      :     0.010690

 86 H s       :     0.857871  s :     0.857871
      pz      :     0.011871  p :     0.043713
      px      :     0.019814
      py      :     0.012027

 87 H s       :     0.848029  s :     0.848029
      pz      :     0.005385  p :     0.042979
      px      :     0.010651
      py      :     0.026943

 88 H s       :     0.848207  s :     0.848207
      pz      :     0.022867  p :     0.042966
      px      :     0.007539
      py      :     0.012560

 89 H s       :     0.848108  s :     0.848108
      pz      :     0.005287  p :     0.042969
      px      :     0.027761
      py      :     0.009920

 90 H s       :     0.848005  s :     0.848005
      pz      :     0.022135  p :     0.042972
      px      :     0.010500
      py      :     0.010338

 91 H s       :     0.858544  s :     0.858544
      pz      :     0.011208  p :     0.043691
      px      :     0.006277
      py      :     0.026206

 92 H s       :     0.848195  s :     0.848195
      pz      :     0.005493  p :     0.042970
      px      :     0.028699
      py      :     0.008778

 93 H s       :     0.848245  s :     0.848245
      pz      :     0.024144  p :     0.042964
      px      :     0.009172
      py      :     0.009647

 94 H s       :     0.848070  s :     0.848070
      pz      :     0.005240  p :     0.042969
      px      :     0.009413
      py      :     0.028316

 95 H s       :     0.848199  s :     0.848199
      pz      :     0.023180  p :     0.042962
      px      :     0.007812
      py      :     0.011969

 96 H s       :     0.872395  s :     0.872395
      pz      :     0.009788  p :     0.039659
      px      :     0.020429
      py      :     0.009442

 97 H s       :     0.864895  s :     0.864895
      pz      :     0.013813  p :     0.039791
      px      :     0.017783
      py      :     0.008196

 98 H s       :     0.871840  s :     0.871840
      pz      :     0.022257  p :     0.039670
      px      :     0.007673
      py      :     0.009740


SPIN
  0 C s       :    -0.000000  s :    -0.000000
      pz      :     0.000000  p :     0.000000
      px      :     0.000000
      py      :     0.000000
      dz2     :    -0.000000  d :    -0.000000
      dxz     :    -0.000000
      dyz     :    -0.000000
      dx2y2   :    -0.000000
      dxy     :    -0.000000

  1 C s       :    -0.000000  s :    -0.000000
      pz      :    -0.000000  p :    -0.000000
      px      :    -0.000000
      py      :    -0.000000
      dz2     :     0.000000  d :     0.000000
      dxz     :     0.000000
      dyz     :     0.000000
      dx2y2   :     0.000000
      dxy     :     0.000000

  2 C s       :     0.000000  s :     0.000000
      pz      :     0.000000  p :     0.000000
      px      :     0.000000
      py      :     0.000000
      dz2     :    -0.000000  d :    -0.000000
      dxz     :    -0.000000
      dyz     :    -0.000000
      dx2y2   :    -0.000000
      dxy     :     0.000000

  3 C s       :     0.000000  s :     0.000000
      pz      :    -0.000000  p :    -0.000000
      px      :    -0.000000
      py      :    -0.000000
      dz2     :     0.000000  d :     0.000000
      dxz     :     0.000000
      dyz     :     0.000000
      dx2y2   :     0.000000
      dxy     :     0.000000

  4 C s       :     0.000000  s :     0.000000
      pz      :     0.000000  p :     0.000000
      px      :     0.000000
      py      :     0.000000
      dz2     :    -0.000000  d :    -0.000000
      dxz     :    -0.000000
      dyz     :    -0.000000
      dx2y2   :    -0.000000
      dxy     :    -0.000000

  5 C s       :     0.000000  s :     0.000000
      pz      :    -0.000000  p :    -0.000000
      px      :    -0.000000
      py      :    -0.000000
      dz2     :     0.000000  d :     0.000000
      dxz     :     0.000000
      dyz     :     0.000000
      dx2y2   :     0.000000
      dxy     :     0.000000

  6 N s       :     0.000000  s :     0.000000
      pz      :    -0.000000  p :     0.000000
      px      :    -0.000000
      py      :     0.000000
      dz2     :    -0.000000  d :     0.000000
      dxz     :    -0.000000
      dyz     :     0.000000
      dx2y2   :     0.000000
      dxy     :     0.000000

  7 C s       :     0.000000  s :     0.000000
      pz      :    -0.000000  p :    -0.000000
      px      :    -0.000000
      py      :    -0.000000
      dz2     :     0.000000  d :     0.000000
      dxz     :     0.000000
      dyz     :     0.000000
      dx2y2   :     0.000000
      dxy     :     0.000000

  8 C s       :     0.000000  s :     0.000000
      pz      :     0.000000  p :    -0.000000
      px      :    -0.000000
      py      :    -0.000000
      dz2     :     0.000000  d :    -0.000000
      dxz     :     0.000000
      dyz     :    -0.000000
      dx2y2   :    -0.000000
      dxy     :    -0.000000

  9 C s       :    -0.000000  s :    -0.000000
      pz      :     0.000000  p :     0.000000
      px      :    -0.000000
      py      :    -0.000000
      dz2     :     0.000000  d :     0.000000
      dxz     :    -0.000000
      dyz     :    -0.000000
      dx2y2   :     0.000000
      dxy     :     0.000000

 10 C s       :     0.000000  s :     0.000000
      pz      :    -0.000000  p :     0.000000
      px      :     0.000000
      py      :     0.000000
      dz2     :    -0.000000  d :     0.000000
      dxz     :     0.000000
      dyz     :     0.000000
      dx2y2   :    -0.000000
      dxy     :    -0.000000

 11 C s       :    -0.000000  s :    -0.000000
      pz      :     0.000000  p :    -0.000000
      px      :    -0.000000
      py      :    -0.000000
      dz2     :     0.000000  d :    -0.000000
      dxz     :     0.000000
      dyz     :    -0.000000
      dx2y2   :    -0.000000
      dxy     :    -0.000000

 12 C s       :    -0.000000  s :    -0.000000
      pz      :    -0.000000  p :     0.000000
      px      :    -0.000000
      py      :     0.000000
      dz2     :    -0.000000  d :    -0.000000
      dxz     :     0.000000
      dyz     :    -0.000000
      dx2y2   :    -0.000000
      dxy     :     0.000000

 13 C s       :     0.000000  s :     0.000000
      pz      :    -0.000000  p :     0.000000
      px      :     0.000000
      py      :     0.000000
      dz2     :    -0.000000  d :    -0.000000
      dxz     :    -0.000000
      dyz     :     0.000000
      dx2y2   :     0.000000
      dxy     :    -0.000000

 14 C s       :    -0.000000  s :    -0.000000
      pz      :     0.000000  p :     0.000000
      px      :     0.000000
      py      :     0.000000
      dz2     :    -0.000000  d :    -0.000000
      dxz     :    -0.000000
      dyz     :     0.000000
      dx2y2   :    -0.000000
      dxy     :    -0.000000

 15 C s       :    -0.000000  s :    -0.000000
      pz      :    -0.000000  p :    -0.000000
      px      :    -0.000000
      py      :    -0.000000
      dz2     :     0.000000  d :     0.000000
      dxz     :     0.000000
      dyz     :     0.000000
      dx2y2   :     0.000000
      dxy     :     0.000000

 16 C s       :     0.000000  s :     0.000000
      pz      :     0.000000  p :     0.000000
      px      :     0.000000
      py      :     0.000000
      dz2     :    -0.000000  d :    -0.000000
      dxz     :    -0.000000
      dyz     :    -0.000000
      dx2y2   :    -0.000000
      dxy     :    -0.000000

 17 C s       :    -0.000000  s :    -0.000000
      pz      :    -0.000000  p :    -0.000000
      px      :    -0.000000
      py      :    -0.000000
      dz2     :     0.000000  d :     0.000000
      dxz     :     0.000000
      dyz     :     0.000000
      dx2y2   :     0.000000
      dxy     :     0.000000

 18 C s       :     0.000000  s :     0.000000
      pz      :     0.000000  p :     0.000000
      px      :     0.000000
      py      :     0.000000
      dz2     :    -0.000000  d :    -0.000000
      dxz     :    -0.000000
      dyz     :    -0.000000
      dx2y2   :    -0.000000
      dxy     :    -0.000000

 19 C s       :     0.000000  s :     0.000000
      pz      :     0.000000  p :     0.000000
      px      :     0.000000
      py      :     0.000000
      dz2     :    -0.000000  d :    -0.000000
      dxz     :    -0.000000
      dyz     :    -0.000000
      dx2y2   :     0.000000
      dxy     :    -0.000000

 20 N s       :    -0.000000  s :    -0.000000
      pz      :    -0.000000  p :    -0.000000
      px      :    -0.000000
      py      :    -0.000000
      dz2     :     0.000000  d :     0.000000
      dxz     :     0.000000
      dyz     :     0.000000
      dx2y2   :     0.000000
      dxy     :     0.000000

 21 C s       :     0.000000  s :     0.000000
      pz      :     0.000000  p :     0.000000
      px      :     0.000000
      py      :     0.000000
      dz2     :     0.000000  d :    -0.000000
      dxz     :    -0.000000
      dyz     :    -0.000000
      dx2y2   :    -0.000000
      dxy     :    -0.000000

 22 C s       :    -0.000000  s :    -0.000000
      pz      :    -0.000000  p :    -0.000000
      px      :    -0.000000
      py      :    -0.000000
      dz2     :     0.000000  d :     0.000000
      dxz     :     0.000000
      dyz     :     0.000000
      dx2y2   :     0.000000
      dxy     :     0.000000

 23 C s       :     0.000000  s :     0.000000
      pz      :     0.000000  p :     0.000000
      px      :     0.000000
      py      :     0.000000
      dz2     :     0.000000  d :    -0.000000
      dxz     :    -0.000000
      dyz     :    -0.000000
      dx2y2   :    -0.000000
      dxy     :    -0.000000

 24 C s       :    -0.000000  s :    -0.000000
      pz      :    -0.000000  p :    -0.000000
      px      :    -0.000000
      py      :    -0.000000
      dz2     :     0.000000  d :     0.000000
      dxz     :     0.000000
      dyz     :     0.000000
      dx2y2   :     0.000000
      dxy     :     0.000000

 25 C s       :     0.000000  s :     0.000000
      pz      :     0.000000  p :     0.000000
      px      :     0.000000
      py      :     0.000000
      dz2     :    -0.000000  d :    -0.000000
      dxz     :    -0.000000
      dyz     :    -0.000000
      dx2y2   :    -0.000000
      dxy     :    -0.000000

 26 C s       :    -0.000000  s :    -0.000000
      pz      :    -0.000000  p :    -0.000000
      px      :    -0.000000
      py      :    -0.000000
      dz2     :     0.000000  d :     0.000000
      dxz     :     0.000000
      dyz     :     0.000000
      dx2y2   :     0.000000
      dxy     :     0.000000

 27 C s       :    -0.000000  s :    -0.000000
      pz      :    -0.000000  p :    -0.000000
      px      :    -0.000000
      py      :    -0.000000
      dz2     :     0.000000  d :     0.000000
      dxz     :     0.000000
      dyz     :     0.000000
      dx2y2   :     0.000000
      dxy     :     0.000000

 28 C s       :     0.000000  s :     0.000000
      pz      :     0.000000  p :     0.000000
      px      :     0.000000
      py      :     0.000000
      dz2     :    -0.000000  d :    -0.000000
      dxz     :     0.000000
      dyz     :    -0.000000
      dx2y2   :    -0.000000
      dxy     :    -0.000000

 29 C s       :    -0.000000  s :    -0.000000
      pz      :    -0.000000  p :    -0.000000
      px      :    -0.000000
      py      :    -0.000000
      dz2     :     0.000000  d :     0.000000
      dxz     :     0.000000
      dyz     :     0.000000
      dx2y2   :     0.000000
      dxy     :     0.000000

 30 C s       :     0.000000  s :     0.000000
      pz      :     0.000000  p :     0.000000
      px      :     0.000000
      py      :     0.000000
      dz2     :    -0.000000  d :    -0.000000
      dxz     :    -0.000000
      dyz     :    -0.000000
      dx2y2   :    -0.000000
      dxy     :    -0.000000

 31 C s       :    -0.000000  s :    -0.000000
      pz      :     0.000000  p :    -0.000000
      px      :    -0.000000
      py      :    -0.000000
      dz2     :     0.000000  d :     0.000000
      dxz     :     0.000000
      dyz     :     0.000000
      dx2y2   :     0.000000
      dxy     :     0.000000

 32 C s       :     0.000000  s :     0.000000
      pz      :     0.000000  p :     0.000000
      px      :     0.000000
      py      :     0.000000
      dz2     :    -0.000000  d :    -0.000000
      dxz     :    -0.000000
      dyz     :    -0.000000
      dx2y2   :    -0.000000
      dxy     :    -0.000000

 33 C s       :     0.000000  s :     0.000000
      pz      :     0.000000  p :     0.000000
      px      :     0.000000
      py      :     0.000000
      dz2     :     0.000000  d :    -0.000000
      dxz     :    -0.000000
      dyz     :    -0.000000
      dx2y2   :    -0.000000
      dxy     :    -0.000000

 34 C s       :     0.000000  s :     0.000000
      pz      :    -0.000000  p :    -0.000000
      px      :     0.000000
      py      :    -0.000000
      dz2     :     0.000000  d :     0.000000
      dxz     :     0.000000
      dyz     :     0.000000
      dx2y2   :     0.000000
      dxy     :     0.000000

 35 C s       :     0.000000  s :     0.000000
      pz      :     0.000000  p :     0.000000
      px      :     0.000000
      py      :     0.000000
      dz2     :     0.000000  d :    -0.000000
      dxz     :    -0.000000
      dyz     :    -0.000000
      dx2y2   :    -0.000000
      dxy     :    -0.000000

 36 C s       :    -0.000000  s :    -0.000000
      pz      :    -0.000000  p :    -0.000000
      px      :    -0.000000
      py      :    -0.000000
      dz2     :     0.000000  d :     0.000000
      dxz     :     0.000000
      dyz     :     0.000000
      dx2y2   :     0.000000
      dxy     :     0.000000

 37 C s       :     0.000000  s :     0.000000
      pz      :     0.000000  p :     0.000000
      px      :     0.000000
      py      :     0.000000
      dz2     :    -0.000000  d :    -0.000000
      dxz     :     0.000000
      dyz     :    -0.000000
      dx2y2   :    -0.000000
      dxy     :     0.000000

 38 Cls       :     0.000000  s :     0.000000
      pz      :     0.000000  p :     0.000000
      px      :     0.000000
      py      :    -0.000000
      dz2     :     0.000000  d :     0.000000
      dxz     :     0.000000
      dyz     :     0.000000
      dx2y2   :     0.000000
      dxy     :     0.000000

 39 Cls       :    -0.000000  s :    -0.000000
      pz      :    -0.000000  p :     0.000000
      px      :     0.000000
      py      :     0.000000
      dz2     :     0.000000  d :     0.000000
      dxz     :     0.000000
      dyz     :     0.000000
      dx2y2   :     0.000000
      dxy     :     0.000000

 40 Cls       :    -0.000000  s :    -0.000000
      pz      :     0.000000  p :     0.000000
      px      :     0.000000
      py      :     0.000000
      dz2     :     0.000000  d :     0.000000
      dxz     :     0.000000
      dyz     :     0.000000
      dx2y2   :    -0.000000
      dxy     :     0.000000

 41 Cls       :    -0.000000  s :    -0.000000
      pz      :     0.000000  p :     0.000000
      px      :    -0.000000
      py      :    -0.000000
      dz2     :     0.000000  d :     0.000000
      dxz     :     0.000000
      dyz     :     0.000000
      dx2y2   :     0.000000
      dxy     :     0.000000

 42 Cls       :    -0.000000  s :    -0.000000
      pz      :     0.000000  p :     0.000000
      px      :     0.000000
      py      :     0.000000
      dz2     :     0.000000  d :     0.000000
      dxz     :     0.000000
      dyz     :     0.000000
      dx2y2   :     0.000000
      dxy     :     0.000000

 43 Cls       :    -0.000000  s :    -0.000000
      pz      :    -0.000000  p :     0.000000
      px      :    -0.000000
      py      :     0.000000
      dz2     :     0.000000  d :     0.000000
      dxz     :     0.000000
      dyz     :     0.000000
      dx2y2   :     0.000000
      dxy     :     0.000000

 44 Cls       :     0.000000  s :     0.000000
      pz      :     0.000000  p :     0.000000
      px      :     0.000000
      py      :     0.000000
      dz2     :     0.000000  d :     0.000000
      dxz     :     0.000000
      dyz     :     0.000000
      dx2y2   :     0.000000
      dxy     :     0.000000

 45 Cls       :     0.000000  s :     0.000000
      pz      :    -0.000000  p :     0.000000
      px      :     0.000000
      py      :     0.000000
      dz2     :     0.000000  d :     0.000000
      dxz     :     0.000000
      dyz     :     0.000000
      dx2y2   :     0.000000
      dxy     :     0.000000

 46 C s       :    -0.000000  s :    -0.000000
      pz      :    -0.000000  p :    -0.000000
      px      :    -0.000000
      py      :    -0.000000
      dz2     :     0.000000  d :     0.000000
      dxz     :     0.000000
      dyz     :     0.000000
      dx2y2   :     0.000000
      dxy     :    -0.000000

 47 N s       :     0.000000  s :     0.000000
      pz      :     0.000000  p :     0.000000
      px      :    -0.000000
      py      :     0.000000
      dz2     :    -0.000000  d :    -0.000000
      dxz     :    -0.000000
      dyz     :    -0.000000
      dx2y2   :    -0.000000
      dxy     :    -0.000000

 48 C s       :    -0.000000  s :    -0.000000
      pz      :    -0.000000  p :    -0.000000
      px      :    -0.000000
      py      :    -0.000000
      dz2     :    -0.000000  d :     0.000000
      dxz     :     0.000000
      dyz     :     0.000000
      dx2y2   :     0.000000
      dxy     :     0.000000

 49 C s       :     0.000000  s :     0.000000
      pz      :     0.000000  p :     0.000000
      px      :     0.000000
      py      :     0.000000
      dz2     :    -0.000000  d :    -0.000000
      dxz     :    -0.000000
      dyz     :    -0.000000
      dx2y2   :    -0.000000
      dxy     :    -0.000000

 50 C s       :    -0.000000  s :    -0.000000
      pz      :    -0.000000  p :    -0.000000
      px      :    -0.000000
      py      :    -0.000000
      dz2     :    -0.000000  d :     0.000000
      dxz     :     0.000000
      dyz     :     0.000000
      dx2y2   :     0.000000
      dxy     :     0.000000

 51 C s       :     0.000000  s :     0.000000
      pz      :     0.000000  p :     0.000000
      px      :     0.000000
      py      :     0.000000
      dz2     :    -0.000000  d :    -0.000000
      dxz     :    -0.000000
      dyz     :    -0.000000
      dx2y2   :    -0.000000
      dxy     :    -0.000000

 52 C s       :    -0.000000  s :    -0.000000
      pz      :    -0.000000  p :    -0.000000
      px      :    -0.000000
      py      :    -0.000000
      dz2     :     0.000000  d :     0.000000
      dxz     :     0.000000
      dyz     :     0.000000
      dx2y2   :     0.000000
      dxy     :     0.000000

 53 C s       :     0.000000  s :     0.000000
      pz      :     0.000000  p :     0.000000
      px      :     0.000000
      py      :     0.000000
      dz2     :    -0.000000  d :    -0.000000
      dxz     :    -0.000000
      dyz     :    -0.000000
      dx2y2   :    -0.000000
      dxy     :    -0.000000

 54 C s       :     0.000000  s :     0.000000
      pz      :     0.000000  p :     0.000000
      px      :     0.000000
      py      :     0.000000
      dz2     :    -0.000000  d :    -0.000000
      dxz     :    -0.000000
      dyz     :    -0.000000
      dx2y2   :    -0.000000
      dxy     :    -0.000000

 55 C s       :    -0.000000  s :    -0.000000
      pz      :    -0.000000  p :    -0.000000
      px      :    -0.000000
      py      :    -0.000000
      dz2     :     0.000000  d :     0.000000
      dxz     :     0.000000
      dyz     :     0.000000
      dx2y2   :     0.000000
      dxy     :     0.000000

 56 C s       :    -0.000000  s :    -0.000000
      pz      :     0.000000  p :     0.000000
      px      :    -0.000000
      py      :     0.000000
      dz2     :    -0.000000  d :    -0.000000
      dxz     :    -0.000000
      dyz     :    -0.000000
      dx2y2   :    -0.000000
      dxy     :    -0.000000

 57 C s       :     0.000000  s :     0.000000
      pz      :    -0.000000  p :    -0.000000
      px      :    -0.000000
      py      :    -0.000000
      dz2     :     0.000000  d :     0.000000
      dxz     :     0.000000
      dyz     :     0.000000
      dx2y2   :     0.000000
      dxy     :     0.000000

 58 C s       :     0.000000  s :     0.000000
      pz      :     0.000000  p :     0.000000
      px      :     0.000000
      py      :     0.000000
      dz2     :    -0.000000  d :    -0.000000
      dxz     :    -0.000000
      dyz     :    -0.000000
      dx2y2   :    -0.000000
      dxy     :    -0.000000

 59 C s       :    -0.000000  s :    -0.000000
      pz      :    -0.000000  p :    -0.000000
      px      :    -0.000000
      py      :    -0.000000
      dz2     :     0.000000  d :     0.000000
      dxz     :    -0.000000
      dyz     :     0.000000
      dx2y2   :     0.000000
      dxy     :    -0.000000

 60 C s       :    -0.000000  s :    -0.000000
      pz      :    -0.000000  p :    -0.000000
      px      :    -0.000000
      py      :    -0.000000
      dz2     :     0.000000  d :     0.000000
      dxz     :     0.000000
      dyz     :     0.000000
      dx2y2   :     0.000000
      dxy     :     0.000000

 61 C s       :     0.000000  s :     0.000000
      pz      :     0.000000  p :     0.000000
      px      :     0.000000
      py      :     0.000000
      dz2     :    -0.000000  d :    -0.000000
      dxz     :    -0.000000
      dyz     :    -0.000000
      dx2y2   :    -0.000000
      dxy     :    -0.000000

 62 C s       :    -0.000000  s :    -0.000000
      pz      :    -0.000000  p :    -0.000000
      px      :    -0.000000
      py      :    -0.000000
      dz2     :     0.000000  d :     0.000000
      dxz     :     0.000000
      dyz     :     0.000000
      dx2y2   :     0.000000
      dxy     :     0.000000

 63 C s       :    -0.000000  s :    -0.000000
      pz      :    -0.000000  p :     0.000000
      px      :     0.000000
      py      :     0.000000
      dz2     :    -0.000000  d :    -0.000000
      dxz     :    -0.000000
      dyz     :    -0.000000
      dx2y2   :    -0.000000
      dxy     :    -0.000000

 64 C s       :    -0.000000  s :    -0.000000
      pz      :    -0.000000  p :    -0.000000
      px      :    -0.000000
      py      :    -0.000000
      dz2     :     0.000000  d :     0.000000
      dxz     :     0.000000
      dyz     :     0.000000
      dx2y2   :     0.000000
      dxy     :     0.000000

 65 Cls       :     0.000000  s :     0.000000
      pz      :    -0.000000  p :    -0.000000
      px      :     0.000000
      py      :     0.000000
      dz2     :    -0.000000  d :    -0.000000
      dxz     :    -0.000000
      dyz     :    -0.000000
      dx2y2   :    -0.000000
      dxy     :     0.000000

 66 Cls       :    -0.000000  s :    -0.000000
      pz      :    -0.000000  p :    -0.000000
      px      :    -0.000000
      py      :    -0.000000
      dz2     :    -0.000000  d :    -0.000000
      dxz     :    -0.000000
      dyz     :     0.000000
      dx2y2   :    -0.000000
      dxy     :    -0.000000

 67 Cls       :     0.000000  s :     0.000000
      pz      :    -0.000000  p :    -0.000000
      px      :     0.000000
      py      :    -0.000000
      dz2     :    -0.000000  d :    -0.000000
      dxz     :    -0.000000
      dyz     :    -0.000000
      dx2y2   :    -0.000000
      dxy     :    -0.000000

 68 Cls       :     0.000000  s :     0.000000
      pz      :    -0.000000  p :    -0.000000
      px      :    -0.000000
      py      :     0.000000
      dz2     :    -0.000000  d :    -0.000000
      dxz     :    -0.000000
      dyz     :    -0.000000
      dx2y2   :     0.000000
      dxy     :    -0.000000

 69 Cls       :     0.000000  s :     0.000000
      pz      :     0.000000  p :    -0.000000
      px      :    -0.000000
      py      :    -0.000000
      dz2     :    -0.000000  d :    -0.000000
      dxz     :    -0.000000
      dyz     :    -0.000000
      dx2y2   :    -0.000000
      dxy     :    -0.000000

 70 Cls       :     0.000000  s :     0.000000
      pz      :    -0.000000  p :    -0.000000
      px      :    -0.000000
      py      :     0.000000
      dz2     :    -0.000000  d :    -0.000000
      dxz     :     0.000000
      dyz     :    -0.000000
      dx2y2   :    -0.000000
      dxy     :    -0.000000

 71 Cls       :    -0.000000  s :    -0.000000
      pz      :    -0.000000  p :    -0.000000
      px      :     0.000000
      py      :    -0.000000
      dz2     :    -0.000000  d :    -0.000000
      dxz     :    -0.000000
      dyz     :    -0.000000
      dx2y2   :    -0.000000
      dxy     :    -0.000000

 72 Cls       :    -0.000000  s :    -0.000000
      pz      :    -0.000000  p :    -0.000000
      px      :    -0.000000
      py      :    -0.000000
      dz2     :    -0.000000  d :    -0.000000
      dxz     :    -0.000000
      dyz     :    -0.000000
      dx2y2   :    -0.000000
      dxy     :    -0.000000

 73 C s       :     0.000000  s :     0.000000
      pz      :     0.000000  p :     0.000000
      px      :    -0.000000
      py      :     0.000000
      dz2     :     0.000000  d :    -0.000000
      dxz     :    -0.000000
      dyz     :    -0.000000
      dx2y2   :    -0.000000
      dxy     :     0.000000

 74 H s       :    -0.000000  s :    -0.000000
      pz      :     0.000000  p :     0.000000
      px      :     0.000000
      py      :     0.000000

 75 H s       :    -0.000000  s :    -0.000000
      pz      :     0.000000  p :     0.000000
      px      :     0.000000
      py      :     0.000000

 76 H s       :    -0.000000  s :    -0.000000
      pz      :    -0.000000  p :    -0.000000
      px      :    -0.000000
      py      :    -0.000000

 77 H s       :     0.000000  s :     0.000000
      pz      :    -0.000000  p :    -0.000000
      px      :    -0.000000
      py      :    -0.000000

 78 H s       :     0.000000  s :     0.000000
      pz      :    -0.000000  p :    -0.000000
      px      :     0.000000
      py      :    -0.000000

 79 H s       :    -0.000000  s :    -0.000000
      pz      :    -0.000000  p :     0.000000
      px      :    -0.000000
      py      :     0.000000

 80 H s       :    -0.000000  s :    -0.000000
      pz      :    -0.000000  p :     0.000000
      px      :    -0.000000
      py      :     0.000000

 81 H s       :    -0.000000  s :    -0.000000
      pz      :     0.000000  p :    -0.000000
      px      :    -0.000000
      py      :    -0.000000

 82 H s       :     0.000000  s :     0.000000
      pz      :     0.000000  p :     0.000000
      px      :     0.000000
      py      :     0.000000

 83 H s       :     0.000000  s :     0.000000
      pz      :    -0.000000  p :    -0.000000
      px      :    -0.000000
      py      :    -0.000000

 84 H s       :     0.000000  s :     0.000000
      pz      :    -0.000000  p :    -0.000000
      px      :    -0.000000
      py      :    -0.000000

 85 H s       :     0.000000  s :     0.000000
      pz      :     0.000000  p :     0.000000
      px      :     0.000000
      py      :     0.000000

 86 H s       :     0.000000  s :     0.000000
      pz      :    -0.000000  p :    -0.000000
      px      :    -0.000000
      py      :    -0.000000

 87 H s       :     0.000000  s :     0.000000
      pz      :    -0.000000  p :    -0.000000
      px      :    -0.000000
      py      :    -0.000000

 88 H s       :     0.000000  s :     0.000000
      pz      :     0.000000  p :    -0.000000
      px      :    -0.000000
      py      :    -0.000000

 89 H s       :     0.000000  s :     0.000000
      pz      :     0.000000  p :    -0.000000
      px      :     0.000000
      py      :    -0.000000

 90 H s       :     0.000000  s :     0.000000
      pz      :     0.000000  p :    -0.000000
      px      :    -0.000000
      py      :    -0.000000

 91 H s       :    -0.000000  s :    -0.000000
      pz      :     0.000000  p :     0.000000
      px      :    -0.000000
      py      :     0.000000

 92 H s       :    -0.000000  s :    -0.000000
      pz      :    -0.000000  p :     0.000000
      px      :     0.000000
      py      :     0.000000

 93 H s       :    -0.000000  s :    -0.000000
      pz      :    -0.000000  p :     0.000000
      px      :    -0.000000
      py      :     0.000000

 94 H s       :    -0.000000  s :    -0.000000
      pz      :    -0.000000  p :     0.000000
      px      :     0.000000
      py      :     0.000000

 95 H s       :    -0.000000  s :    -0.000000
      pz      :    -0.000000  p :     0.000000
      px      :     0.000000
      py      :    -0.000000

 96 H s       :     0.000000  s :     0.000000
      pz      :    -0.000000  p :     0.000000
      px      :     0.000000
      py      :     0.000000

 97 H s       :    -0.000000  s :    -0.000000
      pz      :     0.000000  p :     0.000000
      px      :     0.000000
      py      :     0.000000

 98 H s       :     0.000000  s :     0.000000
      pz      :     0.000000  p :     0.000000
      px      :    -0.000000
      py      :     0.000000



                      *****************************
                      * MAYER POPULATION ANALYSIS *
                      *****************************

  NA   - Mulliken gross atomic population
  ZA   - Total nuclear charge
  QA   - Mulliken gross atomic charge
  VA   - Mayer's total valence
  BVA  - Mayer's bonded valence
  FA   - Mayer's free valence

  ATOM       NA         ZA         QA         VA         BVA        FA
  0 C      6.1525     6.0000    -0.1525     3.9360     3.9360    -0.0000
  1 C      5.9677     6.0000     0.0323     3.9778     3.9778     0.0000
  2 C      6.1294     6.0000    -0.1294     3.9049     3.9049     0.0000
  3 C      6.1435     6.0000    -0.1435     3.8843     3.8843    -0.0000
  4 C      5.7563     6.0000     0.2437     3.8922     3.8922     0.0000
  5 C      6.1504     6.0000    -0.1504     3.9056     3.9056    -0.0000
  6 N      7.6210     7.0000    -0.6210     3.0159     3.0159    -0.0000
  7 C      5.7576     6.0000     0.2424     3.8932     3.8932    -0.0000
  8 C      5.8268     6.0000     0.1732     3.9317     3.9317    -0.0000
  9 C      6.1155     6.0000    -0.1155     3.8920     3.8920    -0.0000
 10 C      6.1598     6.0000    -0.1598     3.9447     3.9447    -0.0000
 11 C      5.9166     6.0000     0.0834     3.9373     3.9373    -0.0000
 12 C      6.1588     6.0000    -0.1588     3.9424     3.9424    -0.0000
 13 C      6.1146     6.0000    -0.1146     3.8919     3.8919    -0.0000
 14 C      6.1489     6.0000    -0.1489     3.9109     3.9109    -0.0000
 15 C      6.1518     6.0000    -0.1518     3.9342     3.9342    -0.0000
 16 C      5.9679     6.0000     0.0321     3.9786     3.9786    -0.0000
 17 C      6.1307     6.0000    -0.1307     3.9056     3.9056     0.0000
 18 C      6.1456     6.0000    -0.1456     3.8783     3.8783    -0.0000
 19 C      5.7805     6.0000     0.2195     3.9536     3.9536     0.0000
 20 N      7.4404     7.0000    -0.4404     2.9924     2.9924    -0.0000
 21 C      5.9562     6.0000     0.0438     3.9515     3.9515    -0.0000
 22 C      5.9094     6.0000     0.0906     3.9003     3.9003    -0.0000
 23 C      6.1354     6.0000    -0.1354     3.9624     3.9624    -0.0000
 24 C      6.0955     6.0000    -0.0955     3.8202     3.8202    -0.0000
 25 C      6.1340     6.0000    -0.1340     3.9792     3.9792     0.0000
 26 C      5.8836     6.0000     0.1164     3.9325     3.9325     0.0000
 27 C      5.8876     6.0000     0.1124     3.9305     3.9305    -0.0000
 28 C      6.1586     6.0000    -0.1586     3.9780     3.9780     0.0000
 29 C      6.0618     6.0000    -0.0618     3.8635     3.8635    -0.0000
 30 C      6.1465     6.0000    -0.1465     3.9919     3.9919    -0.0000
 31 C      6.0617     6.0000    -0.0617     3.8638     3.8638    -0.0000
 32 C      6.1581     6.0000    -0.1581     3.9759     3.9759    -0.0000
 33 C      6.1579     6.0000    -0.1579     3.9787     3.9787    -0.0000
 34 C      6.0614     6.0000    -0.0614     3.8638     3.8638     0.0000
 35 C      6.1462     6.0000    -0.1462     3.9924     3.9924     0.0000
 36 C      6.0608     6.0000    -0.0608     3.8643     3.8643    -0.0000
 37 C      6.1571     6.0000    -0.1571     3.9767     3.9767     0.0000
 38 Cl    16.9422    17.0000     0.0578     1.1718     1.1718    -0.0000
 39 Cl    16.9492    17.0000     0.0508     1.1633     1.1633    -0.0000
 40 Cl    16.9477    17.0000     0.0523     1.1651     1.1651    -0.0000
 41 Cl    16.9518    17.0000     0.0482     1.1745     1.1745    -0.0000
 42 Cl    16.9477    17.0000     0.0523     1.1649     1.1649    -0.0000
 43 Cl    16.9515    17.0000     0.0485     1.1614     1.1614    -0.0000
 44 Cl    16.9608    17.0000     0.0392     1.1334     1.1334    -0.0000
 45 Cl    16.9606    17.0000     0.0394     1.1338     1.1338     0.0000
 46 C      5.7801     6.0000     0.2199     3.9537     3.9537     0.0000
 47 N      7.4408     7.0000    -0.4408     2.9923     2.9923     0.0000
 48 C      5.9566     6.0000     0.0434     3.9519     3.9519     0.0000
 49 C      5.9093     6.0000     0.0907     3.9009     3.9009     0.0000
 50 C      6.1356     6.0000    -0.1356     3.9619     3.9619    -0.0000
 51 C      6.0955     6.0000    -0.0955     3.8203     3.8203    -0.0000
 52 C      6.1347     6.0000    -0.1347     3.9787     3.9787    -0.0000
 53 C      5.8832     6.0000     0.1168     3.9331     3.9331    -0.0000
 54 C      5.8876     6.0000     0.1124     3.9310     3.9310    -0.0000
 55 C      6.1587     6.0000    -0.1587     3.9776     3.9776     0.0000
 56 C      6.0619     6.0000    -0.0619     3.8637     3.8637     0.0000
 57 C      6.1465     6.0000    -0.1465     3.9917     3.9917     0.0000
 58 C      6.0618     6.0000    -0.0618     3.8640     3.8640    -0.0000
 59 C      6.1583     6.0000    -0.1583     3.9759     3.9759     0.0000
 60 C      6.1581     6.0000    -0.1581     3.9785     3.9785    -0.0000
 61 C      6.0613     6.0000    -0.0613     3.8638     3.8638     0.0000
 62 C      6.1463     6.0000    -0.1463     3.9921     3.9921    -0.0000
 63 C      6.0608     6.0000    -0.0608     3.8648     3.8648    -0.0000
 64 C      6.1570     6.0000    -0.1570     3.9759     3.9759    -0.0000
 65 Cl    16.9438    17.0000     0.0562     1.1705     1.1705    -0.0000
 66 Cl    16.9491    17.0000     0.0509     1.1634     1.1634    -0.0000
 67 Cl    16.9485    17.0000     0.0515     1.1644     1.1644    -0.0000
 68 Cl    16.9511    17.0000     0.0489     1.1753     1.1753    -0.0000
 69 Cl    16.9475    17.0000     0.0525     1.1650     1.1650    -0.0000
 70 Cl    16.9532    17.0000     0.0468     1.1601     1.1601    -0.0000
 71 Cl    16.9613    17.0000     0.0387     1.1329     1.1329    -0.0000
 72 Cl    16.9608    17.0000     0.0392     1.1335     1.1335    -0.0000
 73 C      6.4457     6.0000    -0.4457     3.8560     3.8560    -0.0000
 74 H      0.8635     1.0000     0.1365     0.9540     0.9540    -0.0000
 75 H      0.8291     1.0000     0.1709     0.9565     0.9565     0.0000
 76 H      0.8464     1.0000     0.1536     0.9538     0.9538     0.0000
 77 H      0.8457     1.0000     0.1543     0.9536     0.9536     0.0000
 78 H      0.8511     1.0000     0.1489     0.9527     0.9527    -0.0000
 79 H      0.8682     1.0000     0.1318     0.9543     0.9543     0.0000
 80 H      0.8678     1.0000     0.1322     0.9542     0.9542     0.0000
 81 H      0.8511     1.0000     0.1489     0.9528     0.9528    -0.0000
 82 H      0.8476     1.0000     0.1524     0.9544     0.9544    -0.0000
 83 H      0.8650     1.0000     0.1350     0.9543     0.9543    -0.0000
 84 H      0.8284     1.0000     0.1716     0.9564     0.9564     0.0000
 85 H      0.8452     1.0000     0.1548     0.9532     0.9532     0.0000
 86 H      0.8418     1.0000     0.1582     0.9554     0.9554     0.0000
 87 H      0.8231     1.0000     0.1769     0.9502     0.9502    -0.0000
 88 H      0.8236     1.0000     0.1764     0.9504     0.9504     0.0000
 89 H      0.8234     1.0000     0.1766     0.9503     0.9503    -0.0000
 90 H      0.8232     1.0000     0.1768     0.9503     0.9503     0.0000
 91 H      0.8433     1.0000     0.1567     0.9558     0.9558     0.0000
 92 H      0.8234     1.0000     0.1766     0.9503     0.9503     0.0000
 93 H      0.8236     1.0000     0.1764     0.9504     0.9504    -0.0000
 94 H      0.8233     1.0000     0.1767     0.9503     0.9503     0.0000
 95 H      0.8237     1.0000     0.1763     0.9504     0.9504    -0.0000
 96 H      0.8533     1.0000     0.1467     0.9482     0.9482    -0.0000
 97 H      0.8383     1.0000     0.1617     0.9384     0.9384     0.0000
 98 H      0.8525     1.0000     0.1475     0.9477     0.9477    -0.0000

  Mayer bond orders larger than 0.100000
B(  0-C ,  1-C ) :   1.3697 B(  0-C ,  5-C ) :   1.4736 B(  0-C , 74-H ) :   0.9276 
B(  1-C ,  2-C ) :   1.3590 B(  1-C , 19-C ) :   1.0993 B(  2-C ,  3-C ) :   1.4620 
B(  2-C , 75-H ) :   0.9143 B(  3-C ,  4-C ) :   1.3594 B(  3-C , 76-H ) :   0.9254 
B(  4-C ,  5-C ) :   1.3578 B(  4-C ,  6-N ) :   0.9560 B(  5-C , 77-H ) :   0.9245 
B(  6-N ,  7-C ) :   0.9570 B(  6-N ,  8-C ) :   0.9126 B(  7-C , 14-C ) :   1.3646 
B(  7-C , 18-C ) :   1.3524 B(  8-C ,  9-C ) :   1.4042 B(  8-C , 13-C ) :   1.4020 
B(  9-C , 10-C ) :   1.4322 B(  9-C , 78-H ) :   0.9289 B( 10-C , 11-C ) :   1.4285 
B( 10-C , 79-H ) :   0.9352 B( 11-C , 12-C ) :   1.4252 B( 11-C , 73-C ) :   0.9936 
B( 12-C , 13-C ) :   1.4346 B( 12-C , 80-H ) :   0.9353 B( 13-C , 81-H ) :   0.9289 
B( 14-C , 15-C ) :   1.4721 B( 14-C , 82-H ) :   0.9243 B( 15-C , 16-C ) :   1.3704 
B( 15-C , 83-H ) :   0.9279 B( 16-C , 17-C ) :   1.3587 B( 16-C , 46-C ) :   1.0998 
B( 17-C , 18-C ) :   1.4629 B( 17-C , 84-H ) :   0.9139 B( 18-C , 85-H ) :   0.9260 
B( 19-C , 20-N ) :   1.3061 B( 19-C , 24-C ) :   1.3268 B( 20-N , 21-C ) :   1.4897 
B( 21-C , 22-C ) :   1.1995 B( 21-C , 41-Cl) :   1.0848 B( 22-C , 23-C ) :   1.2793 
B( 22-C , 25-C ) :   1.1875 B( 23-C , 24-C ) :   1.4277 B( 23-C , 38-Cl) :   1.0899 
B( 24-C , 86-H ) :   0.9160 B( 25-C , 26-C ) :   1.1226 B( 25-C , 27-C ) :   1.1225 
B( 25-C , 52-C ) :   0.1363 B( 26-C , 33-C ) :   1.3085 B( 26-C , 37-C ) :   1.3081 
B( 27-C , 28-C ) :   1.3089 B( 27-C , 32-C ) :   1.3080 B( 28-C , 29-C ) :   1.4178 
B( 28-C , 40-Cl) :   1.0803 B( 29-C , 30-C ) :   1.3902 B( 29-C , 87-H ) :   0.9239 
B( 30-C , 31-C ) :   1.3903 B( 30-C , 44-Cl) :   1.0604 B( 31-C , 32-C ) :   1.4178 
B( 31-C , 88-H ) :   0.9240 B( 32-C , 39-Cl) :   1.0786 B( 33-C , 34-C ) :   1.4185 
B( 33-C , 42-Cl) :   1.0801 B( 34-C , 35-C ) :   1.3898 B( 34-C , 89-H ) :   0.9239 
B( 35-C , 36-C ) :   1.3903 B( 35-C , 45-Cl) :   1.0606 B( 36-C , 37-C ) :   1.4186 
B( 36-C , 90-H ) :   0.9238 B( 37-C , 43-Cl) :   1.0772 B( 46-C , 47-N ) :   1.3064 
B( 46-C , 51-C ) :   1.3266 B( 47-N , 48-C ) :   1.4895 B( 48-C , 49-C ) :   1.1994 
B( 48-C , 68-Cl) :   1.0854 B( 49-C , 50-C ) :   1.2797 B( 49-C , 52-C ) :   1.1875 
B( 50-C , 51-C ) :   1.4278 B( 50-C , 65-Cl) :   1.0886 B( 51-C , 91-H ) :   0.9162 
B( 52-C , 53-C ) :   1.1227 B( 52-C , 54-C ) :   1.1225 B( 53-C , 60-C ) :   1.3084 
B( 53-C , 64-C ) :   1.3084 B( 54-C , 55-C ) :   1.3091 B( 54-C , 59-C ) :   1.3081 
B( 55-C , 56-C ) :   1.4178 B( 55-C , 67-Cl) :   1.0797 B( 56-C , 57-C ) :   1.3903 
B( 56-C , 92-H ) :   0.9240 B( 57-C , 58-C ) :   1.3905 B( 57-C , 71-Cl) :   1.0600 
B( 58-C , 59-C ) :   1.4177 B( 58-C , 93-H ) :   0.9240 B( 59-C , 66-Cl) :   1.0786 
B( 60-C , 61-C ) :   1.4184 B( 60-C , 69-Cl) :   1.0801 B( 61-C , 62-C ) :   1.3899 
B( 61-C , 94-H ) :   0.9239 B( 62-C , 63-C ) :   1.3902 B( 62-C , 72-Cl) :   1.0602 
B( 63-C , 64-C ) :   1.4188 B( 63-C , 95-H ) :   0.9239 B( 64-C , 70-Cl) :   1.0760 
B( 73-C , 96-H ) :   0.9538 B( 73-C , 97-H ) :   0.9397 B( 73-C , 98-H ) :   0.9529 


-------------------------
FLIP-SPIN BROKEN SYMMETRY
-------------------------

 Flipping spin on atom C  25
Before flipping the spin we have:
Multiplicity                     ... 1
Number of unpaired electrons     ... 0
Number of spin-up electrons      ... 324
Number of spin-down electrons    ... 324
HOMO spin-up                     ... 323
HOMO spin-down                   ... 323
After flipping the spin we have:
Multiplicity                     ... 1
Number of unpaired electrons     ... 0
Number of spin-up electrons      ... 324
Number of spin-down electrons    ... 324
HOMO spin-up                     ... 323
HOMO spin-down                   ... 323

                      ******************************************
                               F L I P    S P I N
                           -----------------------------
                           Broken Symmetry SCF calculation
                                   MS(BS) =   0.0
                      ******************************************
 
The new occupation numbers
   0:    1.000    1.000
   1:    1.000    1.000
   2:    1.000    1.000
   3:    1.000    1.000
   4:    1.000    1.000
   5:    1.000    1.000
   6:    1.000    1.000
   7:    1.000    1.000
   8:    1.000    1.000
   9:    1.000    1.000
  10:    1.000    1.000
  11:    1.000    1.000
  12:    1.000    1.000
  13:    1.000    1.000
  14:    1.000    1.000
  15:    1.000    1.000
  16:    1.000    1.000
  17:    1.000    1.000
  18:    1.000    1.000
  19:    1.000    1.000
  20:    1.000    1.000
  21:    1.000    1.000
  22:    1.000    1.000
  23:    1.000    1.000
  24:    1.000    1.000
  25:    1.000    1.000
  26:    1.000    1.000
  27:    1.000    1.000
  28:    1.000    1.000
  29:    1.000    1.000
  30:    1.000    1.000
  31:    1.000    1.000
  32:    1.000    1.000
  33:    1.000    1.000
  34:    1.000    1.000
  35:    1.000    1.000
  36:    1.000    1.000
  37:    1.000    1.000
  38:    1.000    1.000
  39:    1.000    1.000
  40:    1.000    1.000
  41:    1.000    1.000
  42:    1.000    1.000
  43:    1.000    1.000
  44:    1.000    1.000
  45:    1.000    1.000
  46:    1.000    1.000
  47:    1.000    1.000
  48:    1.000    1.000
  49:    1.000    1.000
  50:    1.000    1.000
  51:    1.000    1.000
  52:    1.000    1.000
  53:    1.000    1.000
  54:    1.000    1.000
  55:    1.000    1.000
  56:    1.000    1.000
  57:    1.000    1.000
  58:    1.000    1.000
  59:    1.000    1.000
  60:    1.000    1.000
  61:    1.000    1.000
  62:    1.000    1.000
  63:    1.000    1.000
  64:    1.000    1.000
  65:    1.000    1.000
  66:    1.000    1.000
  67:    1.000    1.000
  68:    1.000    1.000
  69:    1.000    1.000
  70:    1.000    1.000
  71:    1.000    1.000
  72:    1.000    1.000
  73:    1.000    1.000
  74:    1.000    1.000
  75:    1.000    1.000
  76:    1.000    1.000
  77:    1.000    1.000
  78:    1.000    1.000
  79:    1.000    1.000
  80:    1.000    1.000
  81:    1.000    1.000
  82:    1.000    1.000
  83:    1.000    1.000
  84:    1.000    1.000
  85:    1.000    1.000
  86:    1.000    1.000
  87:    1.000    1.000
  88:    1.000    1.000
  89:    1.000    1.000
  90:    1.000    1.000
  91:    1.000    1.000
  92:    1.000    1.000
  93:    1.000    1.000
  94:    1.000    1.000
  95:    1.000    1.000
  96:    1.000    1.000
  97:    1.000    1.000
  98:    1.000    1.000
  99:    1.000    1.000
 100:    1.000    1.000
 101:    1.000    1.000
 102:    1.000    1.000
 103:    1.000    1.000
 104:    1.000    1.000
 105:    1.000    1.000
 106:    1.000    1.000
 107:    1.000    1.000
 108:    1.000    1.000
 109:    1.000    1.000
 110:    1.000    1.000
 111:    1.000    1.000
 112:    1.000    1.000
 113:    1.000    1.000
 114:    1.000    1.000
 115:    1.000    1.000
 116:    1.000    1.000
 117:    1.000    1.000
 118:    1.000    1.000
 119:    1.000    1.000
 120:    1.000    1.000
 121:    1.000    1.000
 122:    1.000    1.000
 123:    1.000    1.000
 124:    1.000    1.000
 125:    1.000    1.000
 126:    1.000    1.000
 127:    1.000    1.000
 128:    1.000    1.000
 129:    1.000    1.000
 130:    1.000    1.000
 131:    1.000    1.000
 132:    1.000    1.000
 133:    1.000    1.000
 134:    1.000    1.000
 135:    1.000    1.000
 136:    1.000    1.000
 137:    1.000    1.000
 138:    1.000    1.000
 139:    1.000    1.000
 140:    1.000    1.000
 141:    1.000    1.000
 142:    1.000    1.000
 143:    1.000    1.000
 144:    1.000    1.000
 145:    1.000    1.000
 146:    1.000    1.000
 147:    1.000    1.000
 148:    1.000    1.000
 149:    1.000    1.000
 150:    1.000    1.000
 151:    1.000    1.000
 152:    1.000    1.000
 153:    1.000    1.000
 154:    1.000    1.000
 155:    1.000    1.000
 156:    1.000    1.000
 157:    1.000    1.000
 158:    1.000    1.000
 159:    1.000    1.000
 160:    1.000    1.000
 161:    1.000    1.000
 162:    1.000    1.000
 163:    1.000    1.000
 164:    1.000    1.000
 165:    1.000    1.000
 166:    1.000    1.000
 167:    1.000    1.000
 168:    1.000    1.000
 169:    1.000    1.000
 170:    1.000    1.000
 171:    1.000    1.000
 172:    1.000    1.000
 173:    1.000    1.000
 174:    1.000    1.000
 175:    1.000    1.000
 176:    1.000    1.000
 177:    1.000    1.000
 178:    1.000    1.000
 179:    1.000    1.000
 180:    1.000    1.000
 181:    1.000    1.000
 182:    1.000    1.000
 183:    1.000    1.000
 184:    1.000    1.000
 185:    1.000    1.000
 186:    1.000    1.000
 187:    1.000    1.000
 188:    1.000    1.000
 189:    1.000    1.000
 190:    1.000    1.000
 191:    1.000    1.000
 192:    1.000    1.000
 193:    1.000    1.000
 194:    1.000    1.000
 195:    1.000    1.000
 196:    1.000    1.000
 197:    1.000    1.000
 198:    1.000    1.000
 199:    1.000    1.000
 200:    1.000    1.000
 201:    1.000    1.000
 202:    1.000    1.000
 203:    1.000    1.000
 204:    1.000    1.000
 205:    1.000    1.000
 206:    1.000    1.000
 207:    1.000    1.000
 208:    1.000    1.000
 209:    1.000    1.000
 210:    1.000    1.000
 211:    1.000    1.000
 212:    1.000    1.000
 213:    1.000    1.000
 214:    1.000    1.000
 215:    1.000    1.000
 216:    1.000    1.000
 217:    1.000    1.000
 218:    1.000    1.000
 219:    1.000    1.000
 220:    1.000    1.000
 221:    1.000    1.000
 222:    1.000    1.000
 223:    1.000    1.000
 224:    1.000    1.000
 225:    1.000    1.000
 226:    1.000    1.000
 227:    1.000    1.000
 228:    1.000    1.000
 229:    1.000    1.000
 230:    1.000    1.000
 231:    1.000    1.000
 232:    1.000    1.000
 233:    1.000    1.000
 234:    1.000    1.000
 235:    1.000    1.000
 236:    1.000    1.000
 237:    1.000    1.000
 238:    1.000    1.000
 239:    1.000    1.000
 240:    1.000    1.000
 241:    1.000    1.000
 242:    1.000    1.000
 243:    1.000    1.000
 244:    1.000    1.000
 245:    1.000    1.000
 246:    1.000    1.000
 247:    1.000    1.000
 248:    1.000    1.000
 249:    1.000    1.000
 250:    1.000    1.000
 251:    1.000    1.000
 252:    1.000    1.000
 253:    1.000    1.000
 254:    1.000    1.000
 255:    1.000    1.000
 256:    1.000    1.000
 257:    1.000    1.000
 258:    1.000    1.000
 259:    1.000    1.000
 260:    1.000    1.000
 261:    1.000    1.000
 262:    1.000    1.000
 263:    1.000    1.000
 264:    1.000    1.000
 265:    1.000    1.000
 266:    1.000    1.000
 267:    1.000    1.000
 268:    1.000    1.000
 269:    1.000    1.000
 270:    1.000    1.000
 271:    1.000    1.000
 272:    1.000    1.000
 273:    1.000    1.000
 274:    1.000    1.000
 275:    1.000    1.000
 276:    1.000    1.000
 277:    1.000    1.000
 278:    1.000    1.000
 279:    1.000    1.000
 280:    1.000    1.000
 281:    1.000    1.000
 282:    1.000    1.000
 283:    1.000    1.000
 284:    1.000    1.000
 285:    1.000    1.000
 286:    1.000    1.000
 287:    1.000    1.000
 288:    1.000    1.000
 289:    1.000    1.000
 290:    1.000    1.000
 291:    1.000    1.000
 292:    1.000    1.000
 293:    1.000    1.000
 294:    1.000    1.000
 295:    1.000    1.000
 296:    1.000    1.000
 297:    1.000    1.000
 298:    1.000    1.000
 299:    1.000    1.000
 300:    1.000    1.000
 301:    1.000    1.000
 302:    1.000    1.000
 303:    1.000    1.000
 304:    1.000    1.000
 305:    1.000    1.000
 306:    1.000    1.000
 307:    1.000    1.000
 308:    1.000    1.000
 309:    1.000    1.000
 310:    1.000    1.000
 311:    1.000    1.000
 312:    1.000    1.000
 313:    1.000    1.000
 314:    1.000    1.000
 315:    1.000    1.000
 316:    1.000    1.000
 317:    1.000    1.000
 318:    1.000    1.000
 319:    1.000    1.000
 320:    1.000    1.000
 321:    1.000    1.000
 322:    1.000    1.000
 323:    1.000    1.000
 324:    0.000    0.000
 325:    0.000    0.000
 326:    0.000    0.000
 327:    0.000    0.000
 328:    0.000    0.000
 329:    0.000    0.000
 330:    0.000    0.000
 331:    0.000    0.000
 332:    0.000    0.000
 333:    0.000    0.000
 334:    0.000    0.000

----------------------------------------D-I-I-S--------------------------------------------
Iteration    Energy (Eh)           Delta-E    RMSDP     MaxDP     DIISErr   Damp  Time(sec)
-------------------------------------------------------------------------------------------
               ***  Starting incremental Fock matrix formation  ***
                              *** Initializing SOSCF ***
---------------------------------------S-O-S-C-F--------------------------------------
Iteration    Energy (Eh)           Delta-E    RMSDP     MaxDP     MaxGrad    Time(sec)
--------------------------------------------------------------------------------------
    1    -9632.9528771893874364     0.00e+00  5.80e-07  5.15e-06  3.90e-07     7.8
               *** Restarting incremental Fock matrix formation ***
    2    -9632.9528771886925824     6.95e-10  4.30e-07  5.45e-06  1.97e-06     7.0
                  *** Gradient check signals convergence ***

               *****************************************************
               *                     SUCCESS                       *
               *           SCF CONVERGED AFTER   2 CYCLES          *
               *****************************************************

Recomputing exchange energy using gridx3       ... done (   11.139 sec)
Old exchange energy                            :   -188.660826967 Eh
New exchange energy                            :   -188.660898602 Eh
Exchange energy change after final integration :     -0.000071635 Eh
Total energy after final integration           :  -9632.952948814 Eh
             **** ENERGY FILE WAS UPDATED (TPA-Me.en.tmp) ****

----------------
TOTAL SCF ENERGY
----------------

Total Energy       :      -9632.95294881446534 Eh         -262125.97596 eV

Components:
Nuclear Repulsion  :      14908.30358951169001 Eh          405675.56482 eV
Electronic Energy  :     -24541.25646669137132 Eh         -667801.53883 eV
One Electron Energy:     -42987.81966731433204 Eh        -1169758.04250 eV
Two Electron Energy:      18446.56320062296072 Eh          501956.50366 eV

Virial components:
Potential Energy   :     -19241.05019238177920 Eh         -523575.59380 eV
Kinetic Energy     :       9608.09724356731385 Eh          261449.61784 eV
Virial Ratio       :          2.00258695396363

DFT components:
N(Alpha)           :      323.999920327103 electrons
N(Beta)            :      323.999920327103 electrons
N(Total)           :      647.999840654205 electrons
E(X)               :     -563.590522687495 Eh       
E(C)               :      -23.522111097743 Eh       
E(XC)              :     -587.112633785238 Eh       

---------------
SCF CONVERGENCE
---------------

  Last Energy change         ...   -6.9485e-10  Tolerance :   1.0000e-08
  Last MAX-Density change    ...    5.4496e-06  Tolerance :   1.0000e-07
  Last RMS-Density change    ...    4.3036e-07  Tolerance :   5.0000e-09
  Last DIIS Error            ...    2.7212e-06  Tolerance :   5.0000e-07
  Last Orbital Gradient      ...    1.9682e-06  Tolerance :   1.0000e-05
  Last Orbital Rotation      ...    6.2306e-06  Tolerance :   1.0000e-05


----------------------
UHF SPIN CONTAMINATION
----------------------

Warning: in a DFT calculation there is little theoretical justification to 
         calculate <S**2> as in Hartree-Fock theory. We will do it anyways
         but you should keep in mind that the values have only limited relevance

Expectation value of <S**2>     :     0.000000
Ideal value S*(S+1) for S=0.0   :     0.000000
Deviation                       :     0.000000


                    ********************************
                    * MULLIKEN POPULATION ANALYSIS *
                    ********************************

--------------------------------------------
MULLIKEN ATOMIC CHARGES AND SPIN POPULATIONS
--------------------------------------------
   0 C :   -0.152521    0.000000
   1 C :    0.032325   -0.000000
   2 C :   -0.129413    0.000000
   3 C :   -0.143461   -0.000000
   4 C :    0.243736    0.000000
   5 C :   -0.150377   -0.000000
   6 N :   -0.620967    0.000000
   7 C :    0.242417   -0.000000
   8 C :    0.173164    0.000000
   9 C :   -0.115538   -0.000000
  10 C :   -0.159813    0.000000
  11 C :    0.083428   -0.000000
  12 C :   -0.158757   -0.000000
  13 C :   -0.114614    0.000000
  14 C :   -0.148856    0.000000
  15 C :   -0.151788   -0.000000
  16 C :    0.032071    0.000000
  17 C :   -0.130643   -0.000000
  18 C :   -0.145582    0.000000
  19 C :    0.219439    0.000000
  20 N :   -0.440385   -0.000000
  21 C :    0.043839    0.000000
  22 C :    0.090575   -0.000000
  23 C :   -0.135412    0.000000
  24 C :   -0.095539   -0.000000
  25 C :   -0.134023    0.000000
  26 C :    0.116412   -0.000000
  27 C :    0.112413   -0.000000
  28 C :   -0.158603    0.000000
  29 C :   -0.061778   -0.000000
  30 C :   -0.146508    0.000000
  31 C :   -0.061652   -0.000000
  32 C :   -0.158103    0.000000
  33 C :   -0.157893    0.000000
  34 C :   -0.061425   -0.000000
  35 C :   -0.146163    0.000000
  36 C :   -0.060839   -0.000000
  37 C :   -0.157061    0.000000
  38 Cl:    0.057816    0.000000
  39 Cl:    0.050757    0.000000
  40 Cl:    0.052282    0.000000
  41 Cl:    0.048152    0.000000
  42 Cl:    0.052357    0.000000
  43 Cl:    0.048475    0.000000
  44 Cl:    0.039222    0.000000
  45 Cl:    0.039394    0.000000
  46 C :    0.219860   -0.000000
  47 N :   -0.440751    0.000000
  48 C :    0.043443   -0.000000
  49 C :    0.090695    0.000000
  50 C :   -0.135583   -0.000000
  51 C :   -0.095530    0.000000
  52 C :   -0.134720   -0.000000
  53 C :    0.116785    0.000000
  54 C :    0.112438    0.000000
  55 C :   -0.158709   -0.000000
  56 C :   -0.061930    0.000000
  57 C :   -0.146514   -0.000000
  58 C :   -0.061819    0.000000
  59 C :   -0.158299   -0.000000
  60 C :   -0.158151   -0.000000
  61 C :   -0.061316    0.000000
  62 C :   -0.146265   -0.000000
  63 C :   -0.060834    0.000000
  64 C :   -0.156962   -0.000000
  65 Cl:    0.056241   -0.000000
  66 Cl:    0.050931   -0.000000
  67 Cl:    0.051492   -0.000000
  68 Cl:    0.048937   -0.000000
  69 Cl:    0.052520   -0.000000
  70 Cl:    0.046779   -0.000000
  71 Cl:    0.038733   -0.000000
  72 Cl:    0.039223   -0.000000
  73 C :   -0.445703   -0.000000
  74 H :    0.136530   -0.000000
  75 H :    0.170893   -0.000000
  76 H :    0.153626    0.000000
  77 H :    0.154343   -0.000000
  78 H :    0.148891   -0.000000
  79 H :    0.131752    0.000000
  80 H :    0.132221    0.000000
  81 H :    0.148933   -0.000000
  82 H :    0.152401   -0.000000
  83 H :    0.134957    0.000000
  84 H :    0.171568    0.000000
  85 H :    0.154841   -0.000000
  86 H :    0.158191    0.000000
  87 H :    0.176869    0.000000
  88 H :    0.176426    0.000000
  89 H :    0.176629    0.000000
  90 H :    0.176755    0.000000
  91 H :    0.156689   -0.000000
  92 H :    0.176576   -0.000000
  93 H :    0.176368   -0.000000
  94 H :    0.176726   -0.000000
  95 H :    0.176305   -0.000000
  96 H :    0.146674    0.000000
  97 H :    0.161740   -0.000000
  98 H :    0.147546    0.000000
Sum of atomic charges         :   -0.0000000
Sum of atomic spin populations:    0.0000000

-----------------------------------------------------
MULLIKEN REDUCED ORBITAL CHARGES AND SPIN POPULATIONS
-----------------------------------------------------
CHARGE
  0 C s       :     3.179979  s :     3.179979
      pz      :     0.985268  p :     2.937268
      px      :     0.954173
      py      :     0.997827
      dz2     :     0.003846  d :     0.035274
      dxz     :     0.007557
      dyz     :     0.005858
      dx2y2   :     0.009850
      dxy     :     0.008163

  1 C s       :     3.137206  s :     3.137206
      pz      :     0.953456  p :     2.790608
      px      :     0.920749
      py      :     0.916403
      dz2     :     0.006381  d :     0.039862
      dxz     :     0.007510
      dyz     :     0.005959
      dx2y2   :     0.009412
      dxy     :     0.010600

  2 C s       :     3.193275  s :     3.193275
      pz      :     0.975654  p :     2.901254
      px      :     0.978493
      py      :     0.947107
      dz2     :     0.004023  d :     0.034884
      dxz     :     0.007101
      dyz     :     0.005734
      dx2y2   :     0.009689
      dxy     :     0.008337

  3 C s       :     3.174585  s :     3.174585
      pz      :     0.976681  p :     2.935062
      px      :     0.939090
      py      :     1.019290
      dz2     :     0.003695  d :     0.033814
      dxz     :     0.007689
      dyz     :     0.005253
      dx2y2   :     0.009341
      dxy     :     0.007836

  4 C s       :     3.082636  s :     3.082636
      pz      :     0.920141  p :     2.615873
      px      :     0.790598
      py      :     0.905133
      dz2     :     0.008398  d :     0.057755
      dxz     :     0.014056
      dyz     :     0.008535
      dx2y2   :     0.011850
      dxy     :     0.014917

  5 C s       :     3.173303  s :     3.173303
      pz      :     0.976342  p :     2.943202
      px      :     1.007061
      py      :     0.959798
      dz2     :     0.003953  d :     0.033873
      dxz     :     0.007149
      dyz     :     0.005851
      dx2y2   :     0.009305
      dxy     :     0.007615

  6 N s       :     3.626346  s :     3.626346
      pz      :     1.650427  p :     3.952814
      px      :     1.149854
      py      :     1.152533
      dz2     :     0.003454  d :     0.041807
      dxz     :     0.006322
      dyz     :     0.005472
      dx2y2   :     0.013224
      dxy     :     0.013334

  7 C s       :     3.083055  s :     3.083055
      pz      :     0.926510  p :     2.616738
      px      :     0.771788
      py      :     0.918440
      dz2     :     0.007655  d :     0.057790
      dxz     :     0.014179
      dyz     :     0.007952
      dx2y2   :     0.013136
      dxy     :     0.014867

  8 C s       :     3.101160  s :     3.101160
      pz      :     0.925501  p :     2.669277
      px      :     1.010903
      py      :     0.732873
      dz2     :     0.010504  d :     0.056400
      dxz     :     0.005747
      dyz     :     0.017449
      dx2y2   :     0.014021
      dxy     :     0.008678

  9 C s       :     3.172832  s :     3.172832
      pz      :     0.963493  p :     2.908545
      px      :     0.994291
      py      :     0.950761
      dz2     :     0.005217  d :     0.034161
      dxz     :     0.004633
      dyz     :     0.009733
      dx2y2   :     0.006063
      dxy     :     0.008515

 10 C s       :     3.191733  s :     3.191733
      pz      :     0.991154  p :     2.933368
      px      :     0.995294
      py      :     0.946919
      dz2     :     0.005169  d :     0.034712
      dxz     :     0.004831
      dyz     :     0.009315
      dx2y2   :     0.007070
      dxy     :     0.008326

 11 C s       :     3.135509  s :     3.135509
      pz      :     0.927189  p :     2.739291
      px      :     0.930777
      py      :     0.881324
      dz2     :     0.007779  d :     0.041772
      dxz     :     0.005396
      dyz     :     0.010716
      dx2y2   :     0.008643
      dxy     :     0.009239

 12 C s       :     3.192392  s :     3.192392
      pz      :     0.995415  p :     2.931660
      px      :     0.987596
      py      :     0.948649
      dz2     :     0.005299  d :     0.034704
      dxz     :     0.004902
      dyz     :     0.009372
      dx2y2   :     0.006791
      dxy     :     0.008340

 13 C s       :     3.172569  s :     3.172569
      pz      :     0.964249  p :     2.907874
      px      :     0.995740
      py      :     0.947885
      dz2     :     0.004957  d :     0.034171
      dxz     :     0.004550
      dyz     :     0.009998
      dx2y2   :     0.006317
      dxy     :     0.008348

 14 C s       :     3.173294  s :     3.173294
      pz      :     0.982239  p :     2.941768
      px      :     0.941537
      py      :     1.017991
      dz2     :     0.003610  d :     0.033795
      dxz     :     0.007568
      dyz     :     0.004689
      dx2y2   :     0.009374
      dxy     :     0.008553

 15 C s       :     3.179851  s :     3.179851
      pz      :     0.982316  p :     2.936650
      px      :     0.985836
      py      :     0.968499
      dz2     :     0.003531  d :     0.035287
      dxz     :     0.007065
      dyz     :     0.005720
      dx2y2   :     0.009310
      dxy     :     0.009661

 16 C s       :     3.137548  s :     3.137548
      pz      :     0.962754  p :     2.790519
      px      :     0.901733
      py      :     0.926032
      dz2     :     0.005804  d :     0.039861
      dxz     :     0.007021
      dyz     :     0.006050
      dx2y2   :     0.010316
      dxy     :     0.010671

 17 C s       :     3.193231  s :     3.193231
      pz      :     0.973379  p :     2.902553
      px      :     0.920671
      py      :     1.008503
      dz2     :     0.003668  d :     0.034859
      dxz     :     0.007450
      dyz     :     0.004853
      dx2y2   :     0.009888
      dxy     :     0.009000

 18 C s       :     3.175163  s :     3.175163
      pz      :     0.978622  p :     2.936516
      px      :     1.005284
      py      :     0.952609
      dz2     :     0.003488  d :     0.033903
      dxz     :     0.006802
      dyz     :     0.005574
      dx2y2   :     0.009407
      dxy     :     0.008631

 19 C s       :     3.047960  s :     3.047960
      pz      :     0.910315  p :     2.671429
      px      :     0.856259
      py      :     0.904855
      dz2     :     0.007524  d :     0.061173
      dxz     :     0.010889
      dyz     :     0.008886
      dx2y2   :     0.017108
      dxy     :     0.016765

 20 N s       :     3.712901  s :     3.712901
      pz      :     1.210463  p :     3.687753
      px      :     1.009484
      py      :     1.467805
      dz2     :     0.005717  d :     0.039732
      dxz     :     0.008315
      dyz     :     0.006147
      dx2y2   :     0.006654
      dxy     :     0.012898

 21 C s       :     3.104361  s :     3.104361
      pz      :     0.952815  p :     2.780569
      px      :     0.869246
      py      :     0.958508
      dz2     :     0.006692  d :     0.071230
      dxz     :     0.014150
      dyz     :     0.008380
      dx2y2   :     0.019962
      dxy     :     0.022046

 22 C s       :     3.136425  s :     3.136425
      pz      :     0.951764  p :     2.731855
      px      :     0.910327
      py      :     0.869764
      dz2     :     0.004699  d :     0.041145
      dxz     :     0.007163
      dyz     :     0.005430
      dx2y2   :     0.012467
      dxy     :     0.011385

 23 C s       :     3.181838  s :     3.181838
      pz      :     0.990281  p :     2.903098
      px      :     1.051005
      py      :     0.861811
      dz2     :     0.005868  d :     0.050477
      dxz     :     0.008646
      dyz     :     0.008391
      dx2y2   :     0.014429
      dxy     :     0.013142

 24 C s       :     3.147781  s :     3.147781
      pz      :     1.009107  p :     2.914903
      px      :     0.968085
      py      :     0.937712
      dz2     :     0.003404  d :     0.032856
      dxz     :     0.005749
      dyz     :     0.005423
      dx2y2   :     0.008809
      dxy     :     0.009471

 25 C s       :     3.145314  s :     3.145314
      pz      :     0.953149  p :     2.949523
      px      :     0.974222
      py      :     1.022152
      dz2     :     0.009338  d :     0.039186
      dxz     :     0.011909
      dyz     :     0.007017
      dx2y2   :     0.005303
      dxy     :     0.005619

 26 C s       :     3.128844  s :     3.128844
      pz      :     0.874653  p :     2.713379
      px      :     0.844520
      py      :     0.994207
      dz2     :     0.010388  d :     0.041364
      dxz     :     0.010745
      dyz     :     0.007648
      dx2y2   :     0.006497
      dxy     :     0.006085

 27 C s       :     3.130197  s :     3.130197
      pz      :     0.874215  p :     2.716033
      px      :     0.976642
      py      :     0.865176
      dz2     :     0.010320  d :     0.041357
      dxz     :     0.006813
      dyz     :     0.011182
      dx2y2   :     0.006501
      dxy     :     0.006541

 28 C s       :     3.183487  s :     3.183487
      pz      :     0.915602  p :     2.925439
      px      :     1.034536
      py      :     0.975302
      dz2     :     0.011711  d :     0.049677
      dxz     :     0.007896
      dyz     :     0.014666
      dx2y2   :     0.007835
      dxy     :     0.007569

 29 C s       :     3.154679  s :     3.154679
      pz      :     0.856740  p :     2.873656
      px      :     0.990780
      py      :     1.026137
      dz2     :     0.008903  d :     0.033442
      dxz     :     0.006771
      dyz     :     0.009359
      dx2y2   :     0.004328
      dxy     :     0.004082

 30 C s       :     3.185088  s :     3.185088
      pz      :     0.902026  p :     2.910381
      px      :     1.004958
      py      :     1.003398
      dz2     :     0.012514  d :     0.051038
      dxz     :     0.009448
      dyz     :     0.014137
      dx2y2   :     0.007291
      dxy     :     0.007648

 31 C s       :     3.154346  s :     3.154346
      pz      :     0.986804  p :     2.873868
      px      :     0.971060
      py      :     0.916004
      dz2     :     0.007951  d :     0.033439
      dxz     :     0.004567
      dyz     :     0.009449
      dx2y2   :     0.006034
      dxy     :     0.005438

 32 C s       :     3.183566  s :     3.183566
      pz      :     1.036010  p :     2.924902
      px      :     1.023706
      py      :     0.865186
      dz2     :     0.011953  d :     0.049634
      dxz     :     0.007835
      dyz     :     0.013446
      dx2y2   :     0.008503
      dxy     :     0.007898

 33 C s       :     3.183165  s :     3.183165
      pz      :     0.920249  p :     2.925052
      px      :     0.996457
      py      :     1.008345
      dz2     :     0.011733  d :     0.049676
      dxz     :     0.014356
      dyz     :     0.008575
      dx2y2   :     0.007103
      dxy     :     0.007909

 34 C s       :     3.154467  s :     3.154467
      pz      :     0.853624  p :     2.873514
      px      :     1.022705
      py      :     0.997186
      dz2     :     0.008913  d :     0.033444
      dxz     :     0.009781
      dyz     :     0.006647
      dx2y2   :     0.004356
      dxy     :     0.003746

 35 C s       :     3.185091  s :     3.185091
      pz      :     0.890085  p :     2.910024
      px      :     0.984840
      py      :     1.035100
      dz2     :     0.012900  d :     0.051047
      dxz     :     0.015600
      dyz     :     0.008068
      dx2y2   :     0.007011
      dxy     :     0.007469

 36 C s       :     3.154016  s :     3.154016
      pz      :     0.979009  p :     2.873379
      px      :     0.893248
      py      :     1.001123
      dz2     :     0.008152  d :     0.033444
      dxz     :     0.009559
      dyz     :     0.004645
      dx2y2   :     0.005195
      dxy     :     0.005893

 37 C s       :     3.182960  s :     3.182960
      pz      :     1.037410  p :     2.924482
      px      :     0.872368
      py      :     1.014705
      dz2     :     0.012025  d :     0.049619
      dxz     :     0.013339
      dyz     :     0.008200
      dx2y2   :     0.007926
      dxy     :     0.008128

 38 Cls       :     5.923697  s :     5.923697
      pz      :     3.805460  p :    10.988119
      px      :     3.932483
      py      :     3.250176
      dz2     :     0.003909  d :     0.030368
      dxz     :     0.000858
      dyz     :     0.010246
      dx2y2   :     0.011649
      dxy     :     0.003706

 39 Cls       :     5.924869  s :     5.924869
      pz      :     3.926520  p :    10.993937
      px      :     3.853810
      py      :     3.213607
      dz2     :     0.005060  d :     0.030438
      dxz     :     0.000777
      dyz     :     0.004049
      dx2y2   :     0.011501
      dxy     :     0.009050

 40 Cls       :     5.924268  s :     5.924268
      pz      :     3.432385  p :    10.993056
      px      :     3.922738
      py      :     3.637933
      dz2     :     0.007412  d :     0.030394
      dxz     :     0.004246
      dyz     :     0.013667
      dx2y2   :     0.002783
      dxy     :     0.002287

 41 Cls       :     5.924659  s :     5.924659
      pz      :     3.788947  p :    10.999106
      px      :     3.527252
      py      :     3.682906
      dz2     :     0.003575  d :     0.028083
      dxz     :     0.006927
      dyz     :     0.003985
      dx2y2   :     0.003141
      dxy     :     0.010455

 42 Cls       :     5.923970  s :     5.923970
      pz      :     3.455102  p :    10.993279
      px      :     3.733706
      py      :     3.804471
      dz2     :     0.006604  d :     0.030394
      dxz     :     0.010339
      dyz     :     0.007901
      dx2y2   :     0.002294
      dxy     :     0.003256

 43 Cls       :     5.924401  s :     5.924401
      pz      :     3.933177  p :    10.996760
      px      :     3.243133
      py      :     3.820450
      dz2     :     0.005197  d :     0.030364
      dxz     :     0.003704
      dyz     :     0.000738
      dx2y2   :     0.010815
      dxy     :     0.009909

 44 Cls       :     5.922765  s :     5.922765
      pz      :     3.398127  p :    11.008095
      px      :     3.800950
      py      :     3.809018
      dz2     :     0.008014  d :     0.029918
      dxz     :     0.008798
      dyz     :     0.008537
      dx2y2   :     0.002096
      dxy     :     0.002473

 45 Cls       :     5.922679  s :     5.922679
      pz      :     3.349893  p :    11.008008
      px      :     3.734503
      py      :     3.923611
      dz2     :     0.009524  d :     0.029919
      dxz     :     0.011914
      dyz     :     0.004900
      dx2y2   :     0.001770
      dxy     :     0.001811

 46 C s       :     3.047596  s :     3.047596
      pz      :     0.915922  p :     2.671384
      px      :     0.962770
      py      :     0.792692
      dz2     :     0.006766  d :     0.061160
      dxz     :     0.009101
      dyz     :     0.010202
      dx2y2   :     0.016316
      dxy     :     0.018775

 47 N s       :     3.712919  s :     3.712919
      pz      :     1.197174  p :     3.688105
      px      :     1.358932
      py      :     1.131999
      dz2     :     0.005446  d :     0.039727
      dxz     :     0.007208
      dyz     :     0.007160
      dx2y2   :     0.011515
      dxy     :     0.008398

 48 C s       :     3.104351  s :     3.104351
      pz      :     0.957287  p :     2.780969
      px      :     0.982710
      py      :     0.840972
      dz2     :     0.006168  d :     0.071236
      dxz     :     0.012196
      dyz     :     0.009640
      dx2y2   :     0.024765
      dxy     :     0.018467

 49 C s       :     3.136528  s :     3.136528
      pz      :     0.963994  p :     2.731593
      px      :     0.884082
      py      :     0.883517
      dz2     :     0.004481  d :     0.041183
      dxz     :     0.006503
      dyz     :     0.005762
      dx2y2   :     0.014365
      dxy     :     0.010072

 50 C s       :     3.181698  s :     3.181698
      pz      :     0.997928  p :     2.903426
      px      :     0.912848
      py      :     0.992650
      dz2     :     0.005437  d :     0.050460
      dxz     :     0.009247
      dyz     :     0.007382
      dx2y2   :     0.013881
      dxy     :     0.014514

 51 C s       :     3.147511  s :     3.147511
      pz      :     1.010357  p :     2.915152
      px      :     0.884617
      py      :     1.020177
      dz2     :     0.003262  d :     0.032868
      dxz     :     0.006642
      dyz     :     0.004087
      dx2y2   :     0.009746
      dxy     :     0.009131

 52 C s       :     3.144570  s :     3.144570
      pz      :     0.956312  p :     2.950995
      px      :     0.976592
      py      :     1.018091
      dz2     :     0.008805  d :     0.039155
      dxz     :     0.011477
      dyz     :     0.007547
      dx2y2   :     0.004899
      dxy     :     0.006427

 53 C s       :     3.128876  s :     3.128876
      pz      :     0.870670  p :     2.712948
      px      :     0.988854
      py      :     0.853424
      dz2     :     0.010892  d :     0.041390
      dxz     :     0.006502
      dyz     :     0.011554
      dx2y2   :     0.006434
      dxy     :     0.006008

 54 C s       :     3.130211  s :     3.130211
      pz      :     0.869059  p :     2.715966
      px      :     0.844866
      py      :     1.002040
      dz2     :     0.010815  d :     0.041385
      dxz     :     0.010606
      dyz     :     0.007004
      dx2y2   :     0.006793
      dxy     :     0.006167

 55 C s       :     3.183443  s :     3.183443
      pz      :     0.903944  p :     2.925596
      px      :     1.004758
      py      :     1.016895
      dz2     :     0.012028  d :     0.049670
      dxz     :     0.014727
      dyz     :     0.007954
      dx2y2   :     0.006814
      dxy     :     0.008147

 56 C s       :     3.154532  s :     3.154532
      pz      :     0.854747  p :     2.873948
      px      :     1.023344
      py      :     0.995857
      dz2     :     0.008941  d :     0.033450
      dxz     :     0.009905
      dyz     :     0.006437
      dx2y2   :     0.004751
      dxy     :     0.003416

 57 C s       :     3.185003  s :     3.185003
      pz      :     0.908078  p :     2.910481
      px      :     0.967357
      py      :     1.035046
      dz2     :     0.012465  d :     0.051030
      dxz     :     0.016167
      dyz     :     0.007697
      dx2y2   :     0.006818
      dxy     :     0.007884

 58 C s       :     3.154286  s :     3.154286
      pz      :     0.994074  p :     2.874087
      px      :     0.876785
      py      :     1.003228
      dz2     :     0.008074  d :     0.033446
      dxz     :     0.009946
      dyz     :     0.003949
      dx2y2   :     0.005277
      dxy     :     0.006199

 59 C s       :     3.183570  s :     3.183570
      pz      :     1.034524  p :     2.925095
      px      :     0.863436
      py      :     1.027135
      dz2     :     0.011952  d :     0.049634
      dxz     :     0.013937
      dyz     :     0.007685
      dx2y2   :     0.008042
      dxy     :     0.008019

 60 C s       :     3.183247  s :     3.183247
      pz      :     0.910459  p :     2.925231
      px      :     1.034991
      py      :     0.979781
      dz2     :     0.012003  d :     0.049673
      dxz     :     0.007755
      dyz     :     0.015364
      dx2y2   :     0.007039
      dxy     :     0.007512

 61 C s       :     3.154483  s :     3.154483
      pz      :     0.850432  p :     2.873385
      px      :     0.995263
      py      :     1.027689
      dz2     :     0.008945  d :     0.033448
      dxz     :     0.006770
      dyz     :     0.009898
      dx2y2   :     0.004430
      dxy     :     0.003405

 62 C s       :     3.185070  s :     3.185070
      pz      :     0.893194  p :     2.910151
      px      :     1.022052
      py      :     0.994905
      dz2     :     0.012909  d :     0.051045
      dxz     :     0.008680
      dyz     :     0.015245
      dx2y2   :     0.006634
      dxy     :     0.007577

 63 C s       :     3.153954  s :     3.153954
      pz      :     0.984311  p :     2.873431
      px      :     0.985807
      py      :     0.903314
      dz2     :     0.008277  d :     0.033449
      dxz     :     0.004162
      dyz     :     0.009960
      dx2y2   :     0.005562
      dxy     :     0.005488

 64 C s       :     3.182851  s :     3.182851
      pz      :     1.037373  p :     2.924508
      px      :     1.032966
      py      :     0.854169
      dz2     :     0.012039  d :     0.049604
      dxz     :     0.007780
      dyz     :     0.014061
      dx2y2   :     0.008221
      dxy     :     0.007503

 65 Cls       :     5.923621  s :     5.923621
      pz      :     3.836657  p :    10.989793
      px      :     3.417795
      py      :     3.735341
      dz2     :     0.004017  d :     0.030345
      dxz     :     0.007510
      dyz     :     0.002537
      dx2y2   :     0.005633
      dxy     :     0.010647

 66 Cls       :     5.924901  s :     5.924901
      pz      :     3.916126  p :    10.993722
      px      :     3.206755
      py      :     3.870841
      dz2     :     0.004872  d :     0.030446
      dxz     :     0.004739
      dyz     :     0.000598
      dx2y2   :     0.011841
      dxy     :     0.008396

 67 Cls       :     5.924215  s :     5.924215
      pz      :     3.386098  p :    10.993908
      px      :     3.768441
      py      :     3.839369
      dz2     :     0.008746  d :     0.030384
      dxz     :     0.009899
      dyz     :     0.007620
      dx2y2   :     0.001714
      dxy     :     0.002406

 68 Cls       :     5.924684  s :     5.924684
      pz      :     3.816584  p :    10.998271
      px      :     3.925206
      py      :     3.256481
      dz2     :     0.003683  d :     0.028109
      dxz     :     0.000660
      dyz     :     0.009338
      dx2y2   :     0.011076
      dxy     :     0.003351

 69 Cls       :     5.923993  s :     5.923993
      pz      :     3.416151  p :    10.993084
      px      :     3.921882
      py      :     3.655051
      dz2     :     0.007575  d :     0.030403
      dxz     :     0.004613
      dyz     :     0.013493
      dx2y2   :     0.002534
      dxy     :     0.002189

 70 Cls       :     5.924207  s :     5.924207
      pz      :     3.929281  p :    10.998682
      px      :     3.891385
      py      :     3.178015
      dz2     :     0.005136  d :     0.030332
      dxz     :     0.000481
      dyz     :     0.004112
      dx2y2   :     0.012619
      dxy     :     0.007984

 71 Cls       :     5.922761  s :     5.922761
      pz      :     3.424267  p :    11.008584
      px      :     3.665611
      py      :     3.918707
      dz2     :     0.007136  d :     0.029922
      dxz     :     0.013170
      dyz     :     0.004490
      dx2y2   :     0.002574
      dxy     :     0.002551

 72 Cls       :     5.922724  s :     5.922724
      pz      :     3.363249  p :    11.008124
      px      :     3.868784
      py      :     3.776091
      dz2     :     0.008949  d :     0.029929
      dxz     :     0.006917
      dyz     :     0.010220
      dx2y2   :     0.001749
      dxy     :     0.002093

 73 C s       :     3.279721  s :     3.279721
      pz      :     1.087245  p :     3.135465
      px      :     1.087218
      py      :     0.961002
      dz2     :     0.005180  d :     0.030517
      dxz     :     0.006013
      dyz     :     0.006169
      dx2y2   :     0.007358
      dxy     :     0.005797

 74 H s       :     0.850945  s :     0.850945
      pz      :     0.004430  p :     0.012526
      px      :     0.002033
      py      :     0.006063

 75 H s       :     0.816204  s :     0.816204
      pz      :     0.003811  p :     0.012903
      px      :     0.006545
      py      :     0.002547

 76 H s       :     0.833683  s :     0.833683
      pz      :     0.004267  p :     0.012691
      px      :     0.001969
      py      :     0.006456

 77 H s       :     0.832970  s :     0.832970
      pz      :     0.004111  p :     0.012687
      px      :     0.005860
      py      :     0.002716

 78 H s       :     0.838559  s :     0.838559
      pz      :     0.004712  p :     0.012549
      px      :     0.004349
      py      :     0.003488

 79 H s       :     0.855843  s :     0.855843
      pz      :     0.005075  p :     0.012406
      px      :     0.004082
      py      :     0.003249

 80 H s       :     0.855371  s :     0.855371
      pz      :     0.004727  p :     0.012408
      px      :     0.004318
      py      :     0.003364

 81 H s       :     0.838520  s :     0.838520
      pz      :     0.005089  p :     0.012547
      px      :     0.004079
      py      :     0.003379

 82 H s       :     0.834875  s :     0.834875
      pz      :     0.003882  p :     0.012724
      px      :     0.002060
      py      :     0.006781

 83 H s       :     0.852523  s :     0.852523
      pz      :     0.004076  p :     0.012520
      px      :     0.005175
      py      :     0.003269

 84 H s       :     0.815519  s :     0.815519
      pz      :     0.003620  p :     0.012913
      px      :     0.002261
      py      :     0.007032

 85 H s       :     0.832513  s :     0.832513
      pz      :     0.003979  p :     0.012646
      px      :     0.005514
      py      :     0.003152

 86 H s       :     0.828945  s :     0.828945
      pz      :     0.003714  p :     0.012864
      px      :     0.005530
      py      :     0.003620

 87 H s       :     0.810291  s :     0.810291
      pz      :     0.001834  p :     0.012839
      px      :     0.003423
      py      :     0.007583

 88 H s       :     0.810735  s :     0.810735
      pz      :     0.006467  p :     0.012838
      px      :     0.002593
      py      :     0.003778

 89 H s       :     0.810532  s :     0.810532
      pz      :     0.001800  p :     0.012840
      px      :     0.007790
      py      :     0.003249

 90 H s       :     0.810401  s :     0.810401
      pz      :     0.006269  p :     0.012843
      px      :     0.003216
      py      :     0.003359

 91 H s       :     0.830450  s :     0.830450
      pz      :     0.003556  p :     0.012860
      px      :     0.001976
      py      :     0.007328

 92 H s       :     0.810586  s :     0.810586
      pz      :     0.001860  p :     0.012838
      px      :     0.008021
      py      :     0.002957

 93 H s       :     0.810794  s :     0.810794
      pz      :     0.006804  p :     0.012838
      px      :     0.002846
      py      :     0.003189

 94 H s       :     0.810435  s :     0.810435
      pz      :     0.001785  p :     0.012840
      px      :     0.003120
      py      :     0.007934

 95 H s       :     0.810854  s :     0.810854
      pz      :     0.006542  p :     0.012841
      px      :     0.002695
      py      :     0.003604

 96 H s       :     0.841735  s :     0.841735
      pz      :     0.003040  p :     0.011592
      px      :     0.005654
      py      :     0.002898

 97 H s       :     0.826591  s :     0.826591
      pz      :     0.004047  p :     0.011669
      px      :     0.005010
      py      :     0.002611

 98 H s       :     0.840855  s :     0.840855
      pz      :     0.006085  p :     0.011600
      px      :     0.002539
      py      :     0.002975


SPIN
  0 C s       :     0.000000  s :     0.000000
      pz      :     0.000000  p :     0.000000
      px      :     0.000000
      py      :     0.000000
      dz2     :    -0.000000  d :    -0.000000
      dxz     :    -0.000000
      dyz     :    -0.000000
      dx2y2   :    -0.000000
      dxy     :    -0.000000

  1 C s       :    -0.000000  s :    -0.000000
      pz      :    -0.000000  p :    -0.000000
      px      :    -0.000000
      py      :    -0.000000
      dz2     :     0.000000  d :     0.000000
      dxz     :     0.000000
      dyz     :     0.000000
      dx2y2   :     0.000000
      dxy     :     0.000000

  2 C s       :     0.000000  s :     0.000000
      pz      :     0.000000  p :     0.000000
      px      :     0.000000
      py      :     0.000000
      dz2     :    -0.000000  d :    -0.000000
      dxz     :    -0.000000
      dyz     :    -0.000000
      dx2y2   :    -0.000000
      dxy     :    -0.000000

  3 C s       :    -0.000000  s :    -0.000000
      pz      :    -0.000000  p :    -0.000000
      px      :    -0.000000
      py      :    -0.000000
      dz2     :     0.000000  d :     0.000000
      dxz     :     0.000000
      dyz     :     0.000000
      dx2y2   :     0.000000
      dxy     :     0.000000

  4 C s       :     0.000000  s :     0.000000
      pz      :     0.000000  p :     0.000000
      px      :     0.000000
      py      :     0.000000
      dz2     :    -0.000000  d :    -0.000000
      dxz     :    -0.000000
      dyz     :    -0.000000
      dx2y2   :    -0.000000
      dxy     :    -0.000000

  5 C s       :    -0.000000  s :    -0.000000
      pz      :    -0.000000  p :    -0.000000
      px      :    -0.000000
      py      :    -0.000000
      dz2     :     0.000000  d :     0.000000
      dxz     :     0.000000
      dyz     :     0.000000
      dx2y2   :     0.000000
      dxy     :    -0.000000

  6 N s       :    -0.000000  s :    -0.000000
      pz      :     0.000000  p :     0.000000
      px      :     0.000000
      py      :     0.000000
      dz2     :    -0.000000  d :    -0.000000
      dxz     :    -0.000000
      dyz     :     0.000000
      dx2y2   :     0.000000
      dxy     :    -0.000000

  7 C s       :    -0.000000  s :    -0.000000
      pz      :    -0.000000  p :    -0.000000
      px      :    -0.000000
      py      :    -0.000000
      dz2     :     0.000000  d :     0.000000
      dxz     :     0.000000
      dyz     :     0.000000
      dx2y2   :     0.000000
      dxy     :     0.000000

  8 C s       :    -0.000000  s :    -0.000000
      pz      :    -0.000000  p :     0.000000
      px      :    -0.000000
      py      :     0.000000
      dz2     :     0.000000  d :     0.000000
      dxz     :     0.000000
      dyz     :     0.000000
      dx2y2   :     0.000000
      dxy     :    -0.000000

  9 C s       :    -0.000000  s :    -0.000000
      pz      :     0.000000  p :     0.000000
      px      :     0.000000
      py      :    -0.000000
      dz2     :     0.000000  d :    -0.000000
      dxz     :    -0.000000
      dyz     :    -0.000000
      dx2y2   :    -0.000000
      dxy     :    -0.000000

 10 C s       :     0.000000  s :     0.000000
      pz      :     0.000000  p :     0.000000
      px      :     0.000000
      py      :    -0.000000
      dz2     :     0.000000  d :     0.000000
      dxz     :     0.000000
      dyz     :     0.000000
      dx2y2   :     0.000000
      dxy     :    -0.000000

 11 C s       :    -0.000000  s :    -0.000000
      pz      :     0.000000  p :     0.000000
      px      :     0.000000
      py      :     0.000000
      dz2     :    -0.000000  d :    -0.000000
      dxz     :    -0.000000
      dyz     :    -0.000000
      dx2y2   :    -0.000000
      dxy     :    -0.000000

 12 C s       :    -0.000000  s :    -0.000000
      pz      :     0.000000  p :    -0.000000
      px      :    -0.000000
      py      :    -0.000000
      dz2     :    -0.000000  d :     0.000000
      dxz     :     0.000000
      dyz     :    -0.000000
      dx2y2   :    -0.000000
      dxy     :     0.000000

 13 C s       :     0.000000  s :     0.000000
      pz      :    -0.000000  p :     0.000000
      px      :     0.000000
      py      :     0.000000
      dz2     :    -0.000000  d :     0.000000
      dxz     :     0.000000
      dyz     :    -0.000000
      dx2y2   :     0.000000
      dxy     :    -0.000000

 14 C s       :    -0.000000  s :    -0.000000
      pz      :     0.000000  p :     0.000000
      px      :     0.000000
      py      :     0.000000
      dz2     :    -0.000000  d :    -0.000000
      dxz     :    -0.000000
      dyz     :    -0.000000
      dx2y2   :    -0.000000
      dxy     :    -0.000000

 15 C s       :    -0.000000  s :    -0.000000
      pz      :    -0.000000  p :    -0.000000
      px      :    -0.000000
      py      :    -0.000000
      dz2     :     0.000000  d :     0.000000
      dxz     :     0.000000
      dyz     :     0.000000
      dx2y2   :     0.000000
      dxy     :     0.000000

 16 C s       :     0.000000  s :     0.000000
      pz      :     0.000000  p :     0.000000
      px      :     0.000000
      py      :     0.000000
      dz2     :    -0.000000  d :    -0.000000
      dxz     :    -0.000000
      dyz     :    -0.000000
      dx2y2   :    -0.000000
      dxy     :    -0.000000

 17 C s       :    -0.000000  s :    -0.000000
      pz      :    -0.000000  p :    -0.000000
      px      :    -0.000000
      py      :    -0.000000
      dz2     :     0.000000  d :     0.000000
      dxz     :     0.000000
      dyz     :     0.000000
      dx2y2   :     0.000000
      dxy     :     0.000000

 18 C s       :     0.000000  s :     0.000000
      pz      :     0.000000  p :     0.000000
      px      :     0.000000
      py      :     0.000000
      dz2     :    -0.000000  d :    -0.000000
      dxz     :    -0.000000
      dyz     :    -0.000000
      dx2y2   :    -0.000000
      dxy     :    -0.000000

 19 C s       :     0.000000  s :     0.000000
      pz      :     0.000000  p :     0.000000
      px      :     0.000000
      py      :     0.000000
      dz2     :    -0.000000  d :    -0.000000
      dxz     :    -0.000000
      dyz     :    -0.000000
      dx2y2   :     0.000000
      dxy     :    -0.000000

 20 N s       :    -0.000000  s :    -0.000000
      pz      :    -0.000000  p :    -0.000000
      px      :    -0.000000
      py      :    -0.000000
      dz2     :     0.000000  d :     0.000000
      dxz     :     0.000000
      dyz     :    -0.000000
      dx2y2   :     0.000000
      dxy     :     0.000000

 21 C s       :     0.000000  s :     0.000000
      pz      :     0.000000  p :     0.000000
      px      :     0.000000
      py      :     0.000000
      dz2     :     0.000000  d :    -0.000000
      dxz     :    -0.000000
      dyz     :    -0.000000
      dx2y2   :    -0.000000
      dxy     :    -0.000000

 22 C s       :    -0.000000  s :    -0.000000
      pz      :    -0.000000  p :    -0.000000
      px      :    -0.000000
      py      :    -0.000000
      dz2     :     0.000000  d :     0.000000
      dxz     :     0.000000
      dyz     :     0.000000
      dx2y2   :     0.000000
      dxy     :     0.000000

 23 C s       :     0.000000  s :     0.000000
      pz      :     0.000000  p :     0.000000
      px      :     0.000000
      py      :     0.000000
      dz2     :    -0.000000  d :    -0.000000
      dxz     :    -0.000000
      dyz     :    -0.000000
      dx2y2   :    -0.000000
      dxy     :    -0.000000

 24 C s       :    -0.000000  s :    -0.000000
      pz      :    -0.000000  p :    -0.000000
      px      :    -0.000000
      py      :    -0.000000
      dz2     :     0.000000  d :     0.000000
      dxz     :     0.000000
      dyz     :     0.000000
      dx2y2   :     0.000000
      dxy     :     0.000000

 25 C s       :     0.000000  s :     0.000000
      pz      :     0.000000  p :     0.000000
      px      :     0.000000
      py      :     0.000000
      dz2     :    -0.000000  d :    -0.000000
      dxz     :    -0.000000
      dyz     :    -0.000000
      dx2y2   :    -0.000000
      dxy     :    -0.000000

 26 C s       :    -0.000000  s :    -0.000000
      pz      :    -0.000000  p :    -0.000000
      px      :    -0.000000
      py      :    -0.000000
      dz2     :     0.000000  d :     0.000000
      dxz     :     0.000000
      dyz     :     0.000000
      dx2y2   :     0.000000
      dxy     :     0.000000

 27 C s       :    -0.000000  s :    -0.000000
      pz      :    -0.000000  p :    -0.000000
      px      :    -0.000000
      py      :    -0.000000
      dz2     :     0.000000  d :     0.000000
      dxz     :     0.000000
      dyz     :     0.000000
      dx2y2   :     0.000000
      dxy     :     0.000000

 28 C s       :     0.000000  s :     0.000000
      pz      :     0.000000  p :     0.000000
      px      :     0.000000
      py      :     0.000000
      dz2     :    -0.000000  d :    -0.000000
      dxz     :     0.000000
      dyz     :    -0.000000
      dx2y2   :    -0.000000
      dxy     :    -0.000000

 29 C s       :    -0.000000  s :    -0.000000
      pz      :    -0.000000  p :    -0.000000
      px      :    -0.000000
      py      :    -0.000000
      dz2     :     0.000000  d :     0.000000
      dxz     :     0.000000
      dyz     :     0.000000
      dx2y2   :     0.000000
      dxy     :     0.000000

 30 C s       :     0.000000  s :     0.000000
      pz      :     0.000000  p :     0.000000
      px      :     0.000000
      py      :     0.000000
      dz2     :    -0.000000  d :    -0.000000
      dxz     :    -0.000000
      dyz     :    -0.000000
      dx2y2   :    -0.000000
      dxy     :    -0.000000

 31 C s       :     0.000000  s :     0.000000
      pz      :    -0.000000  p :    -0.000000
      px      :    -0.000000
      py      :    -0.000000
      dz2     :     0.000000  d :     0.000000
      dxz     :     0.000000
      dyz     :     0.000000
      dx2y2   :     0.000000
      dxy     :     0.000000

 32 C s       :     0.000000  s :     0.000000
      pz      :     0.000000  p :     0.000000
      px      :     0.000000
      py      :     0.000000
      dz2     :    -0.000000  d :    -0.000000
      dxz     :    -0.000000
      dyz     :    -0.000000
      dx2y2   :    -0.000000
      dxy     :    -0.000000

 33 C s       :     0.000000  s :     0.000000
      pz      :     0.000000  p :     0.000000
      px      :     0.000000
      py      :     0.000000
      dz2     :    -0.000000  d :    -0.000000
      dxz     :    -0.000000
      dyz     :    -0.000000
      dx2y2   :    -0.000000
      dxy     :    -0.000000

 34 C s       :    -0.000000  s :    -0.000000
      pz      :    -0.000000  p :    -0.000000
      px      :    -0.000000
      py      :    -0.000000
      dz2     :     0.000000  d :     0.000000
      dxz     :     0.000000
      dyz     :     0.000000
      dx2y2   :     0.000000
      dxy     :     0.000000

 35 C s       :     0.000000  s :     0.000000
      pz      :     0.000000  p :     0.000000
      px      :     0.000000
      py      :     0.000000
      dz2     :    -0.000000  d :    -0.000000
      dxz     :    -0.000000
      dyz     :    -0.000000
      dx2y2   :    -0.000000
      dxy     :    -0.000000

 36 C s       :    -0.000000  s :    -0.000000
      pz      :    -0.000000  p :    -0.000000
      px      :    -0.000000
      py      :    -0.000000
      dz2     :     0.000000  d :     0.000000
      dxz     :     0.000000
      dyz     :     0.000000
      dx2y2   :     0.000000
      dxy     :     0.000000

 37 C s       :     0.000000  s :     0.000000
      pz      :     0.000000  p :     0.000000
      px      :     0.000000
      py      :     0.000000
      dz2     :    -0.000000  d :    -0.000000
      dxz     :     0.000000
      dyz     :    -0.000000
      dx2y2   :    -0.000000
      dxy     :     0.000000

 38 Cls       :     0.000000  s :     0.000000
      pz      :     0.000000  p :     0.000000
      px      :     0.000000
      py      :    -0.000000
      dz2     :     0.000000  d :     0.000000
      dxz     :     0.000000
      dyz     :     0.000000
      dx2y2   :     0.000000
      dxy     :     0.000000

 39 Cls       :     0.000000  s :     0.000000
      pz      :    -0.000000  p :     0.000000
      px      :     0.000000
      py      :    -0.000000
      dz2     :     0.000000  d :     0.000000
      dxz     :    -0.000000
      dyz     :     0.000000
      dx2y2   :     0.000000
      dxy     :     0.000000

 40 Cls       :    -0.000000  s :    -0.000000
      pz      :     0.000000  p :     0.000000
      px      :     0.000000
      py      :     0.000000
      dz2     :     0.000000  d :     0.000000
      dxz     :     0.000000
      dyz     :     0.000000
      dx2y2   :    -0.000000
      dxy     :     0.000000

 41 Cls       :    -0.000000  s :    -0.000000
      pz      :     0.000000  p :     0.000000
      px      :    -0.000000
      py      :     0.000000
      dz2     :     0.000000  d :     0.000000
      dxz     :     0.000000
      dyz     :     0.000000
      dx2y2   :    -0.000000
      dxy     :    -0.000000

 42 Cls       :     0.000000  s :     0.000000
      pz      :     0.000000  p :     0.000000
      px      :     0.000000
      py      :     0.000000
      dz2     :     0.000000  d :     0.000000
      dxz     :     0.000000
      dyz     :     0.000000
      dx2y2   :     0.000000
      dxy     :     0.000000

 43 Cls       :    -0.000000  s :    -0.000000
      pz      :    -0.000000  p :     0.000000
      px      :     0.000000
      py      :     0.000000
      dz2     :     0.000000  d :     0.000000
      dxz     :     0.000000
      dyz     :     0.000000
      dx2y2   :     0.000000
      dxy     :     0.000000

 44 Cls       :    -0.000000  s :    -0.000000
      pz      :    -0.000000  p :     0.000000
      px      :     0.000000
      py      :     0.000000
      dz2     :     0.000000  d :     0.000000
      dxz     :     0.000000
      dyz     :     0.000000
      dx2y2   :     0.000000
      dxy     :     0.000000

 45 Cls       :     0.000000  s :     0.000000
      pz      :    -0.000000  p :     0.000000
      px      :     0.000000
      py      :     0.000000
      dz2     :     0.000000  d :     0.000000
      dxz     :     0.000000
      dyz     :     0.000000
      dx2y2   :     0.000000
      dxy     :     0.000000

 46 C s       :    -0.000000  s :    -0.000000
      pz      :    -0.000000  p :    -0.000000
      px      :    -0.000000
      py      :    -0.000000
      dz2     :     0.000000  d :     0.000000
      dxz     :     0.000000
      dyz     :     0.000000
      dx2y2   :     0.000000
      dxy     :    -0.000000

 47 N s       :     0.000000  s :     0.000000
      pz      :     0.000000  p :     0.000000
      px      :    -0.000000
      py      :     0.000000
      dz2     :    -0.000000  d :    -0.000000
      dxz     :    -0.000000
      dyz     :    -0.000000
      dx2y2   :    -0.000000
      dxy     :    -0.000000

 48 C s       :    -0.000000  s :    -0.000000
      pz      :    -0.000000  p :    -0.000000
      px      :    -0.000000
      py      :    -0.000000
      dz2     :     0.000000  d :     0.000000
      dxz     :     0.000000
      dyz     :     0.000000
      dx2y2   :     0.000000
      dxy     :     0.000000

 49 C s       :     0.000000  s :     0.000000
      pz      :     0.000000  p :     0.000000
      px      :     0.000000
      py      :     0.000000
      dz2     :    -0.000000  d :    -0.000000
      dxz     :    -0.000000
      dyz     :    -0.000000
      dx2y2   :    -0.000000
      dxy     :    -0.000000

 50 C s       :    -0.000000  s :    -0.000000
      pz      :    -0.000000  p :    -0.000000
      px      :    -0.000000
      py      :    -0.000000
      dz2     :     0.000000  d :     0.000000
      dxz     :     0.000000
      dyz     :     0.000000
      dx2y2   :     0.000000
      dxy     :     0.000000

 51 C s       :     0.000000  s :     0.000000
      pz      :     0.000000  p :     0.000000
      px      :     0.000000
      py      :     0.000000
      dz2     :    -0.000000  d :    -0.000000
      dxz     :    -0.000000
      dyz     :    -0.000000
      dx2y2   :    -0.000000
      dxy     :    -0.000000

 52 C s       :    -0.000000  s :    -0.000000
      pz      :    -0.000000  p :    -0.000000
      px      :    -0.000000
      py      :    -0.000000
      dz2     :     0.000000  d :     0.000000
      dxz     :     0.000000
      dyz     :     0.000000
      dx2y2   :     0.000000
      dxy     :     0.000000

 53 C s       :     0.000000  s :     0.000000
      pz      :     0.000000  p :     0.000000
      px      :     0.000000
      py      :     0.000000
      dz2     :    -0.000000  d :    -0.000000
      dxz     :    -0.000000
      dyz     :    -0.000000
      dx2y2   :    -0.000000
      dxy     :    -0.000000

 54 C s       :     0.000000  s :     0.000000
      pz      :     0.000000  p :     0.000000
      px      :     0.000000
      py      :     0.000000
      dz2     :    -0.000000  d :    -0.000000
      dxz     :    -0.000000
      dyz     :    -0.000000
      dx2y2   :    -0.000000
      dxy     :    -0.000000

 55 C s       :    -0.000000  s :    -0.000000
      pz      :    -0.000000  p :    -0.000000
      px      :    -0.000000
      py      :    -0.000000
      dz2     :     0.000000  d :     0.000000
      dxz     :     0.000000
      dyz     :     0.000000
      dx2y2   :     0.000000
      dxy     :     0.000000

 56 C s       :    -0.000000  s :    -0.000000
      pz      :     0.000000  p :     0.000000
      px      :    -0.000000
      py      :     0.000000
      dz2     :    -0.000000  d :    -0.000000
      dxz     :    -0.000000
      dyz     :    -0.000000
      dx2y2   :    -0.000000
      dxy     :    -0.000000

 57 C s       :    -0.000000  s :    -0.000000
      pz      :    -0.000000  p :    -0.000000
      px      :    -0.000000
      py      :    -0.000000
      dz2     :     0.000000  d :     0.000000
      dxz     :    -0.000000
      dyz     :     0.000000
      dx2y2   :     0.000000
      dxy     :     0.000000

 58 C s       :     0.000000  s :     0.000000
      pz      :     0.000000  p :     0.000000
      px      :     0.000000
      py      :     0.000000
      dz2     :    -0.000000  d :    -0.000000
      dxz     :    -0.000000
      dyz     :    -0.000000
      dx2y2   :    -0.000000
      dxy     :    -0.000000

 59 C s       :    -0.000000  s :    -0.000000
      pz      :    -0.000000  p :    -0.000000
      px      :    -0.000000
      py      :    -0.000000
      dz2     :     0.000000  d :     0.000000
      dxz     :    -0.000000
      dyz     :     0.000000
      dx2y2   :     0.000000
      dxy     :    -0.000000

 60 C s       :    -0.000000  s :    -0.000000
      pz      :    -0.000000  p :    -0.000000
      px      :    -0.000000
      py      :    -0.000000
      dz2     :     0.000000  d :     0.000000
      dxz     :     0.000000
      dyz     :     0.000000
      dx2y2   :     0.000000
      dxy     :     0.000000

 61 C s       :     0.000000  s :     0.000000
      pz      :     0.000000  p :     0.000000
      px      :     0.000000
      py      :     0.000000
      dz2     :    -0.000000  d :    -0.000000
      dxz     :    -0.000000
      dyz     :    -0.000000
      dx2y2   :    -0.000000
      dxy     :    -0.000000

 62 C s       :    -0.000000  s :    -0.000000
      pz      :    -0.000000  p :    -0.000000
      px      :    -0.000000
      py      :    -0.000000
      dz2     :     0.000000  d :     0.000000
      dxz     :     0.000000
      dyz     :     0.000000
      dx2y2   :     0.000000
      dxy     :     0.000000

 63 C s       :     0.000000  s :     0.000000
      pz      :     0.000000  p :     0.000000
      px      :     0.000000
      py      :     0.000000
      dz2     :    -0.000000  d :    -0.000000
      dxz     :    -0.000000
      dyz     :    -0.000000
      dx2y2   :    -0.000000
      dxy     :    -0.000000

 64 C s       :    -0.000000  s :    -0.000000
      pz      :    -0.000000  p :    -0.000000
      px      :    -0.000000
      py      :    -0.000000
      dz2     :     0.000000  d :     0.000000
      dxz     :     0.000000
      dyz     :     0.000000
      dx2y2   :     0.000000
      dxy     :     0.000000

 65 Cls       :     0.000000  s :     0.000000
      pz      :    -0.000000  p :    -0.000000
      px      :     0.000000
      py      :    -0.000000
      dz2     :    -0.000000  d :    -0.000000
      dxz     :    -0.000000
      dyz     :    -0.000000
      dx2y2   :     0.000000
      dxy     :     0.000000

 66 Cls       :    -0.000000  s :    -0.000000
      pz      :     0.000000  p :    -0.000000
      px      :    -0.000000
      py      :    -0.000000
      dz2     :    -0.000000  d :    -0.000000
      dxz     :    -0.000000
      dyz     :     0.000000
      dx2y2   :    -0.000000
      dxy     :    -0.000000

 67 Cls       :     0.000000  s :     0.000000
      pz      :    -0.000000  p :    -0.000000
      px      :     0.000000
      py      :    -0.000000
      dz2     :    -0.000000  d :    -0.000000
      dxz     :    -0.000000
      dyz     :    -0.000000
      dx2y2   :    -0.000000
      dxy     :    -0.000000

 68 Cls       :     0.000000  s :     0.000000
      pz      :    -0.000000  p :    -0.000000
      px      :    -0.000000
      py      :     0.000000
      dz2     :    -0.000000  d :    -0.000000
      dxz     :    -0.000000
      dyz     :    -0.000000
      dx2y2   :     0.000000
      dxy     :    -0.000000

 69 Cls       :     0.000000  s :     0.000000
      pz      :    -0.000000  p :    -0.000000
      px      :    -0.000000
      py      :    -0.000000
      dz2     :    -0.000000  d :    -0.000000
      dxz     :    -0.000000
      dyz     :    -0.000000
      dx2y2   :    -0.000000
      dxy     :    -0.000000

 70 Cls       :    -0.000000  s :    -0.000000
      pz      :     0.000000  p :    -0.000000
      px      :    -0.000000
      py      :     0.000000
      dz2     :    -0.000000  d :    -0.000000
      dxz     :     0.000000
      dyz     :    -0.000000
      dx2y2   :    -0.000000
      dxy     :    -0.000000

 71 Cls       :    -0.000000  s :    -0.000000
      pz      :     0.000000  p :    -0.000000
      px      :     0.000000
      py      :    -0.000000
      dz2     :    -0.000000  d :    -0.000000
      dxz     :    -0.000000
      dyz     :    -0.000000
      dx2y2   :    -0.000000
      dxy     :    -0.000000

 72 Cls       :    -0.000000  s :    -0.000000
      pz      :     0.000000  p :    -0.000000
      px      :    -0.000000
      py      :    -0.000000
      dz2     :    -0.000000  d :    -0.000000
      dxz     :    -0.000000
      dyz     :    -0.000000
      dx2y2   :    -0.000000
      dxy     :    -0.000000

 73 C s       :    -0.000000  s :    -0.000000
      pz      :    -0.000000  p :    -0.000000
      px      :    -0.000000
      py      :     0.000000
      dz2     :     0.000000  d :     0.000000
      dxz     :     0.000000
      dyz     :     0.000000
      dx2y2   :     0.000000
      dxy     :     0.000000

 74 H s       :    -0.000000  s :    -0.000000
      pz      :     0.000000  p :     0.000000
      px      :     0.000000
      py      :     0.000000

 75 H s       :    -0.000000  s :    -0.000000
      pz      :     0.000000  p :     0.000000
      px      :     0.000000
      py      :     0.000000

 76 H s       :     0.000000  s :     0.000000
      pz      :    -0.000000  p :    -0.000000
      px      :    -0.000000
      py      :    -0.000000

 77 H s       :    -0.000000  s :    -0.000000
      pz      :    -0.000000  p :    -0.000000
      px      :    -0.000000
      py      :    -0.000000

 78 H s       :    -0.000000  s :    -0.000000
      pz      :    -0.000000  p :     0.000000
      px      :     0.000000
      py      :    -0.000000

 79 H s       :     0.000000  s :     0.000000
      pz      :     0.000000  p :     0.000000
      px      :    -0.000000
      py      :     0.000000

 80 H s       :     0.000000  s :     0.000000
      pz      :     0.000000  p :     0.000000
      px      :    -0.000000
      py      :     0.000000

 81 H s       :    -0.000000  s :    -0.000000
      pz      :    -0.000000  p :    -0.000000
      px      :    -0.000000
      py      :    -0.000000

 82 H s       :    -0.000000  s :    -0.000000
      pz      :     0.000000  p :     0.000000
      px      :    -0.000000
      py      :     0.000000

 83 H s       :     0.000000  s :     0.000000
      pz      :    -0.000000  p :    -0.000000
      px      :    -0.000000
      py      :    -0.000000

 84 H s       :     0.000000  s :     0.000000
      pz      :    -0.000000  p :    -0.000000
      px      :     0.000000
      py      :    -0.000000

 85 H s       :    -0.000000  s :    -0.000000
      pz      :     0.000000  p :     0.000000
      px      :     0.000000
      py      :     0.000000

 86 H s       :     0.000000  s :     0.000000
      pz      :    -0.000000  p :    -0.000000
      px      :    -0.000000
      py      :     0.000000

 87 H s       :     0.000000  s :     0.000000
      pz      :    -0.000000  p :    -0.000000
      px      :    -0.000000
      py      :    -0.000000

 88 H s       :     0.000000  s :     0.000000
      pz      :     0.000000  p :    -0.000000
      px      :    -0.000000
      py      :    -0.000000

 89 H s       :     0.000000  s :     0.000000
      pz      :    -0.000000  p :    -0.000000
      px      :    -0.000000
      py      :    -0.000000

 90 H s       :     0.000000  s :     0.000000
      pz      :    -0.000000  p :    -0.000000
      px      :    -0.000000
      py      :    -0.000000

 91 H s       :    -0.000000  s :    -0.000000
      pz      :     0.000000  p :     0.000000
      px      :    -0.000000
      py      :     0.000000

 92 H s       :    -0.000000  s :    -0.000000
      pz      :    -0.000000  p :     0.000000
      px      :     0.000000
      py      :     0.000000

 93 H s       :    -0.000000  s :    -0.000000
      pz      :    -0.000000  p :     0.000000
      px      :     0.000000
      py      :     0.000000

 94 H s       :    -0.000000  s :    -0.000000
      pz      :    -0.000000  p :     0.000000
      px      :     0.000000
      py      :     0.000000

 95 H s       :    -0.000000  s :    -0.000000
      pz      :    -0.000000  p :     0.000000
      px      :     0.000000
      py      :    -0.000000

 96 H s       :     0.000000  s :     0.000000
      pz      :     0.000000  p :     0.000000
      px      :     0.000000
      py      :     0.000000

 97 H s       :    -0.000000  s :    -0.000000
      pz      :     0.000000  p :     0.000000
      px      :     0.000000
      py      :    -0.000000

 98 H s       :     0.000000  s :     0.000000
      pz      :     0.000000  p :     0.000000
      px      :     0.000000
      py      :     0.000000



                     *******************************
                     * LOEWDIN POPULATION ANALYSIS *
                     *******************************

-------------------------------------------
LOEWDIN ATOMIC CHARGES AND SPIN POPULATIONS
-------------------------------------------
   0 C :   -0.062978    0.000000
   1 C :   -0.035231   -0.000000
   2 C :   -0.043433    0.000000
   3 C :   -0.088861   -0.000000
   4 C :    0.035045    0.000000
   5 C :   -0.091130   -0.000000
   6 N :   -0.013145    0.000000
   7 C :    0.034455   -0.000000
   8 C :    0.011555    0.000000
   9 C :   -0.080033    0.000000
  10 C :   -0.079133   -0.000000
  11 C :   -0.014255   -0.000000
  12 C :   -0.078419   -0.000000
  13 C :   -0.079692    0.000000
  14 C :   -0.089634    0.000000
  15 C :   -0.062320   -0.000000
  16 C :   -0.035324    0.000000
  17 C :   -0.045093   -0.000000
  18 C :   -0.091098    0.000000
  19 C :    0.041160    0.000000
  20 N :   -0.115864   -0.000000
  21 C :   -0.021719    0.000000
  22 C :   -0.056471   -0.000000
  23 C :   -0.057005    0.000000
  24 C :   -0.098515   -0.000000
  25 C :   -0.024095    0.000000
  26 C :   -0.041343   -0.000000
  27 C :   -0.042358   -0.000000
  28 C :   -0.066695    0.000000
  29 C :   -0.091063   -0.000000
  30 C :   -0.080880    0.000000
  31 C :   -0.091299   -0.000000
  32 C :   -0.067054    0.000000
  33 C :   -0.065863    0.000000
  34 C :   -0.090701   -0.000000
  35 C :   -0.080330    0.000000
  36 C :   -0.090693   -0.000000
  37 C :   -0.066123    0.000000
  38 Cl:    0.075495    0.000000
  39 Cl:    0.069343    0.000000
  40 Cl:    0.070955    0.000000
  41 Cl:    0.059084    0.000000
  42 Cl:    0.071223    0.000000
  43 Cl:    0.067589    0.000000
  44 Cl:    0.065443    0.000000
  45 Cl:    0.065686    0.000000
  46 C :    0.040509   -0.000000
  47 N :   -0.115974    0.000000
  48 C :   -0.021916   -0.000000
  49 C :   -0.056225    0.000000
  50 C :   -0.057360   -0.000000
  51 C :   -0.098954    0.000000
  52 C :   -0.025722   -0.000000
  53 C :   -0.041131    0.000000
  54 C :   -0.042209    0.000000
  55 C :   -0.066899   -0.000000
  56 C :   -0.091252    0.000000
  57 C :   -0.081182   -0.000000
  58 C :   -0.091345    0.000000
  59 C :   -0.067226   -0.000000
  60 C :   -0.066020   -0.000000
  61 C :   -0.090560    0.000000
  62 C :   -0.080578   -0.000000
  63 C :   -0.090814    0.000000
  64 C :   -0.066286   -0.000000
  65 Cl:    0.074269   -0.000000
  66 Cl:    0.069483   -0.000000
  67 Cl:    0.070363   -0.000000
  68 Cl:    0.059731   -0.000000
  69 Cl:    0.071392   -0.000000
  70 Cl:    0.066351   -0.000000
  71 Cl:    0.065084   -0.000000
  72 Cl:    0.065597   -0.000000
  73 C :   -0.216784   -0.000000
  74 H :    0.086824   -0.000000
  75 H :    0.102311   -0.000000
  76 H :    0.095325   -0.000000
  77 H :    0.094958   -0.000000
  78 H :    0.093603   -0.000000
  79 H :    0.085892   -0.000000
  80 H :    0.086153    0.000000
  81 H :    0.093653   -0.000000
  82 H :    0.094777    0.000000
  83 H :    0.086172    0.000000
  84 H :    0.102563    0.000000
  85 H :    0.095130    0.000000
  86 H :    0.098419    0.000000
  87 H :    0.108993    0.000000
  88 H :    0.108825    0.000000
  89 H :    0.108924    0.000000
  90 H :    0.109023    0.000000
  91 H :    0.097766   -0.000000
  92 H :    0.108835   -0.000000
  93 H :    0.108789   -0.000000
  94 H :    0.108961   -0.000000
  95 H :    0.108838   -0.000000
  96 H :    0.087943    0.000000
  97 H :    0.095312   -0.000000
  98 H :    0.088488    0.000000

----------------------------------------------------
LOEWDIN REDUCED ORBITAL CHARGES AND SPIN POPULATIONS
----------------------------------------------------
CHARGE
  0 C s       :     2.894569  s :     2.894569
      pz      :     1.004562  p :     3.084264
      px      :     1.046540
      py      :     1.033163
      dz2     :     0.008696  d :     0.084144
      dxz     :     0.018190
      dyz     :     0.011191
      dx2y2   :     0.024491
      dxy     :     0.021576

  1 C s       :     2.868019  s :     2.868019
      pz      :     1.017602  p :     3.066511
      px      :     1.021597
      py      :     1.027311
      dz2     :     0.013987  d :     0.100701
      dxz     :     0.018474
      dyz     :     0.015181
      dx2y2   :     0.025096
      dxy     :     0.027964

  2 C s       :     2.897188  s :     2.897188
      pz      :     0.988459  p :     3.062899
      px      :     1.058213
      py      :     1.016228
      dz2     :     0.008928  d :     0.083346
      dxz     :     0.015078
      dyz     :     0.013347
      dx2y2   :     0.024122
      dxy     :     0.021870

  3 C s       :     2.896902  s :     2.896902
      pz      :     1.009599  p :     3.110130
      px      :     1.048909
      py      :     1.051621
      dz2     :     0.008174  d :     0.081830
      dxz     :     0.019007
      dyz     :     0.010036
      dx2y2   :     0.023767
      dxy     :     0.020846

  4 C s       :     2.854502  s :     2.854502
      pz      :     1.002768  p :     2.971309
      px      :     0.957336
      py      :     1.011205
      dz2     :     0.018256  d :     0.139144
      dxz     :     0.032375
      dyz     :     0.020101
      dx2y2   :     0.030542
      dxy     :     0.037870

  5 C s       :     2.896706  s :     2.896706
      pz      :     1.012582  p :     3.112632
      px      :     1.062805
      py      :     1.037245
      dz2     :     0.008784  d :     0.081793
      dxz     :     0.015383
      dyz     :     0.013962
      dx2y2   :     0.023404
      dxy     :     0.020260

  6 N s       :     3.056602  s :     3.056602
      pz      :     1.558818  p :     3.855809
      px      :     1.146927
      py      :     1.150063
      dz2     :     0.005294  d :     0.100734
      dxz     :     0.013207
      dyz     :     0.011395
      dx2y2   :     0.035501
      dxy     :     0.035338

  7 C s       :     2.854517  s :     2.854517
      pz      :     0.994562  p :     2.971786
      px      :     0.947976
      py      :     1.029248
      dz2     :     0.016365  d :     0.139242
      dxz     :     0.032165
      dyz     :     0.018468
      dx2y2   :     0.033980
      dxy     :     0.038264

  8 C s       :     2.854097  s :     2.854097
      pz      :     1.046090  p :     2.997726
      px      :     1.039653
      py      :     0.911983
      dz2     :     0.024058  d :     0.136622
      dxz     :     0.014115
      dyz     :     0.042138
      dx2y2   :     0.034588
      dxy     :     0.021723

  9 C s       :     2.900224  s :     2.900224
      pz      :     1.017668  p :     3.097371
      px      :     1.017051
      py      :     1.062651
      dz2     :     0.012262  d :     0.082438
      dxz     :     0.009510
      dyz     :     0.024121
      dx2y2   :     0.016464
      dxy     :     0.020081

 10 C s       :     2.898245  s :     2.898245
      pz      :     1.026643  p :     3.097362
      px      :     1.015684
      py      :     1.055035
      dz2     :     0.012088  d :     0.083527
      dxz     :     0.009633
      dyz     :     0.022907
      dx2y2   :     0.018687
      dxy     :     0.020211

 11 C s       :     2.877216  s :     2.877216
      pz      :     1.016812  p :     3.035812
      px      :     0.991226
      py      :     1.027774
      dz2     :     0.018491  d :     0.101226
      dxz     :     0.014234
      dyz     :     0.025773
      dx2y2   :     0.021499
      dxy     :     0.021230

 12 C s       :     2.898217  s :     2.898217
      pz      :     1.029645  p :     3.096697
      px      :     1.011734
      py      :     1.055318
      dz2     :     0.012384  d :     0.083505
      dxz     :     0.009791
      dyz     :     0.023474
      dx2y2   :     0.018048
      dxy     :     0.019808

 13 C s       :     2.900201  s :     2.900201
      pz      :     1.019639  p :     3.097037
      px      :     1.016010
      py      :     1.061388
      dz2     :     0.011607  d :     0.082454
      dxz     :     0.009307
      dyz     :     0.024471
      dx2y2   :     0.017034
      dxy     :     0.020036

 14 C s       :     2.896514  s :     2.896514
      pz      :     1.007723  p :     3.111453
      px      :     1.049708
      py      :     1.054021
      dz2     :     0.007796  d :     0.081667
      dxz     :     0.018279
      dyz     :     0.008918
      dx2y2   :     0.023957
      dxy     :     0.022717

 15 C s       :     2.894554  s :     2.894554
      pz      :     0.996583  p :     3.083600
      px      :     1.055945
      py      :     1.031072
      dz2     :     0.007752  d :     0.084166
      dxz     :     0.015018
      dyz     :     0.012641
      dx2y2   :     0.023998
      dxy     :     0.024758

 16 C s       :     2.868047  s :     2.868047
      pz      :     1.011739  p :     3.066576
      px      :     1.021251
      py      :     1.033586
      dz2     :     0.012439  d :     0.100700
      dxz     :     0.016790
      dyz     :     0.015044
      dx2y2   :     0.027760
      dxy     :     0.028668

 17 C s       :     2.897206  s :     2.897206
      pz      :     0.980852  p :     3.064571
      px      :     1.040401
      py      :     1.043318
      dz2     :     0.007955  d :     0.083316
      dxz     :     0.017730
      dyz     :     0.009048
      dx2y2   :     0.024996
      dxy     :     0.023588

 18 C s       :     2.897287  s :     2.897287
      pz      :     1.007520  p :     3.111812
      px      :     1.066441
      py      :     1.037851
      dz2     :     0.007523  d :     0.082000
      dxz     :     0.014545
      dyz     :     0.012828
      dx2y2   :     0.024441
      dxy     :     0.022662

 19 C s       :     2.855748  s :     2.855748
      pz      :     0.945752  p :     2.955777
      px      :     0.991002
      py      :     1.019023
      dz2     :     0.015641  d :     0.147314
      dxz     :     0.024221
      dyz     :     0.021667
      dx2y2   :     0.043633
      dxy     :     0.042151

 20 N s       :     3.216864  s :     3.216864
      pz      :     1.208163  p :     3.811082
      px      :     1.120479
      py      :     1.482440
      dz2     :     0.011005  d :     0.087918
      dxz     :     0.020008
      dyz     :     0.008602
      dx2y2   :     0.017948
      dxy     :     0.030355

 21 C s       :     2.898865  s :     2.898865
      pz      :     0.960972  p :     2.960024
      px      :     0.985478
      py      :     1.013574
      dz2     :     0.013851  d :     0.162830
      dxz     :     0.029118
      dyz     :     0.018053
      dx2y2   :     0.047465
      dxy     :     0.054342

 22 C s       :     2.876024  s :     2.876024
      pz      :     1.012045  p :     3.075205
      px      :     1.029434
      py      :     1.033726
      dz2     :     0.010247  d :     0.105243
      dxz     :     0.016922
      dyz     :     0.013685
      dx2y2   :     0.033268
      dxy     :     0.031120

 23 C s       :     2.915598  s :     2.915598
      pz      :     0.992185  p :     3.024892
      px      :     1.089541
      py      :     0.943166
      dz2     :     0.011409  d :     0.116514
      dxz     :     0.019656
      dyz     :     0.017233
      dx2y2   :     0.035450
      dxy     :     0.032767

 24 C s       :     2.898482  s :     2.898482
      pz      :     1.017378  p :     3.117782
      px      :     1.053282
      py      :     1.047122
      dz2     :     0.007313  d :     0.082251
      dxz     :     0.012316
      dyz     :     0.012697
      dx2y2   :     0.023666
      dxy     :     0.026258

 25 C s       :     2.877576  s :     2.877576
      pz      :     1.014409  p :     3.054574
      px      :     1.018133
      py      :     1.022032
      dz2     :     0.023120  d :     0.091946
      dxz     :     0.029247
      dyz     :     0.015510
      dx2y2   :     0.011447
      dxy     :     0.012622

 26 C s       :     2.871322  s :     2.871322
      pz      :     1.024776  p :     3.065518
      px      :     1.028764
      py      :     1.011977
      dz2     :     0.027493  d :     0.104504
      dxz     :     0.030520
      dyz     :     0.016988
      dx2y2   :     0.015498
      dxy     :     0.014004

 27 C s       :     2.871665  s :     2.871665
      pz      :     1.024766  p :     3.066229
      px      :     1.006490
      py      :     1.034972
      dz2     :     0.027170  d :     0.104465
      dxz     :     0.015427
      dyz     :     0.031236
      dx2y2   :     0.015603
      dxy     :     0.015029

 28 C s       :     2.914847  s :     2.914847
      pz      :     0.978885  p :     3.037371
      px      :     1.031369
      py      :     1.027117
      dz2     :     0.028095  d :     0.114478
      dxz     :     0.016476
      dyz     :     0.036138
      dx2y2   :     0.016869
      dxy     :     0.016900

 29 C s       :     2.898468  s :     2.898468
      pz      :     1.036192  p :     3.109112
      px      :     1.010022
      py      :     1.062899
      dz2     :     0.025675  d :     0.083483
      dxz     :     0.016584
      dyz     :     0.025419
      dx2y2   :     0.008096
      dxy     :     0.007709

 30 C s       :     2.909830  s :     2.909830
      pz      :     0.983061  p :     3.053014
      px      :     1.004359
      py      :     1.065594
      dz2     :     0.030291  d :     0.118036
      dxz     :     0.019649
      dyz     :     0.035238
      dx2y2   :     0.016025
      dxy     :     0.016833

 31 C s       :     2.898341  s :     2.898341
      pz      :     1.058898  p :     3.109470
      px      :     1.008038
      py      :     1.042535
      dz2     :     0.020049  d :     0.083487
      dxz     :     0.010557
      dyz     :     0.024839
      dx2y2   :     0.014233
      dxy     :     0.013809

 32 C s       :     2.915228  s :     2.915228
      pz      :     1.083026  p :     3.037480
      px      :     1.014687
      py      :     0.939767
      dz2     :     0.030124  d :     0.114345
      dxz     :     0.017294
      dyz     :     0.033444
      dx2y2   :     0.017592
      dxy     :     0.015892

 33 C s       :     2.914661  s :     2.914661
      pz      :     0.985227  p :     3.036755
      px      :     1.044743
      py      :     1.006785
      dz2     :     0.028550  d :     0.114448
      dxz     :     0.035982
      dyz     :     0.017386
      dx2y2   :     0.016096
      dxy     :     0.016434

 34 C s       :     2.898388  s :     2.898388
      pz      :     1.036935  p :     3.108836
      px      :     1.064913
      py      :     1.006988
      dz2     :     0.026114  d :     0.083476
      dxz     :     0.026913
      dyz     :     0.015588
      dx2y2   :     0.008054
      dxy     :     0.006806

 35 C s       :     2.909804  s :     2.909804
      pz      :     0.974391  p :     3.052485
      px      :     1.054584
      py      :     1.023510
      dz2     :     0.031287  d :     0.118041
      dxz     :     0.038769
      dyz     :     0.016152
      dx2y2   :     0.015948
      dxy     :     0.015886

 36 C s       :     2.898243  s :     2.898243
      pz      :     1.058892  p :     3.108969
      px      :     1.042089
      py      :     1.007988
      dz2     :     0.020857  d :     0.083481
      dxz     :     0.026732
      dyz     :     0.009246
      dx2y2   :     0.013469
      dxy     :     0.013177

 37 C s       :     2.915120  s :     2.915120
      pz      :     1.085698  p :     3.036718
      px      :     0.939597
      py      :     1.011423
      dz2     :     0.030569  d :     0.114284
      dxz     :     0.033935
      dyz     :     0.017329
      dx2y2   :     0.016288
      dxy     :     0.016163

 38 Cls       :     5.798443  s :     5.798443
      pz      :     3.816190  p :    11.091434
      px      :     3.934421
      py      :     3.340822
      dz2     :     0.004256  d :     0.034628
      dxz     :     0.000902
      dyz     :     0.011764
      dx2y2   :     0.013772
      dxy     :     0.003934

 39 Cls       :     5.799560  s :     5.799560
      pz      :     3.929055  p :    11.096455
      px      :     3.858296
      py      :     3.309105
      dz2     :     0.006075  d :     0.034643
      dxz     :     0.000801
      dyz     :     0.004246
      dx2y2   :     0.013314
      dxy     :     0.010207

 40 Cls       :     5.799369  s :     5.799369
      pz      :     3.496056  p :    11.095119
      px      :     3.918890
      py      :     3.680173
      dz2     :     0.008311  d :     0.034557
      dxz     :     0.004493
      dyz     :     0.016241
      dx2y2   :     0.003105
      dxy     :     0.002406

 41 Cls       :     5.807447  s :     5.807447
      pz      :     3.800313  p :    11.101374
      px      :     3.586373
      py      :     3.714689
      dz2     :     0.003871  d :     0.032095
      dxz     :     0.008033
      dyz     :     0.004597
      dx2y2   :     0.003210
      dxy     :     0.012384

 42 Cls       :     5.799183  s :     5.799183
      pz      :     3.515923  p :    11.095048
      px      :     3.762569
      py      :     3.816557
      dz2     :     0.007335  d :     0.034547
      dxz     :     0.012193
      dyz     :     0.008975
      dx2y2   :     0.002391
      dxy     :     0.003653

 43 Cls       :     5.799601  s :     5.799601
      pz      :     3.934609  p :    11.098269
      px      :     3.332973
      py      :     3.830687
      dz2     :     0.006250  d :     0.034541
      dxz     :     0.003827
      dyz     :     0.000751
      dx2y2   :     0.012479
      dxy     :     0.011233

 44 Cls       :     5.797551  s :     5.797551
      pz      :     3.468263  p :    11.103102
      px      :     3.811488
      py      :     3.823351
      dz2     :     0.009031  d :     0.033904
      dxz     :     0.010033
      dyz     :     0.009898
      dx2y2   :     0.002207
      dxy     :     0.002735

 45 Cls       :     5.797493  s :     5.797493
      pz      :     3.426546  p :    11.102920
      px      :     3.759348
      py      :     3.917025
      dz2     :     0.010872  d :     0.033902
      dxz     :     0.014015
      dyz     :     0.005178
      dx2y2   :     0.001921
      dxy     :     0.001916

 46 C s       :     2.855644  s :     2.855644
      pz      :     0.941611  p :     2.956529
      px      :     1.035107
      py      :     0.979812
      dz2     :     0.014004  d :     0.147318
      dxz     :     0.020138
      dyz     :     0.023521
      dx2y2   :     0.040982
      dxy     :     0.048672

 47 N s       :     3.216777  s :     3.216777
      pz      :     1.192796  p :     3.811280
      px      :     1.422092
      py      :     1.196392
      dz2     :     0.010562  d :     0.087917
      dxz     :     0.011876
      dyz     :     0.016133
      dx2y2   :     0.026990
      dxy     :     0.022356

 48 C s       :     2.898834  s :     2.898834
      pz      :     0.960993  p :     2.960239
      px      :     1.058717
      py      :     0.940529
      dz2     :     0.012778  d :     0.162843
      dxz     :     0.026121
      dyz     :     0.018719
      dx2y2   :     0.060849
      dxy     :     0.044376

 49 C s       :     2.876025  s :     2.876025
      pz      :     1.010823  p :     3.074891
      px      :     1.029548
      py      :     1.034520
      dz2     :     0.009664  d :     0.105309
      dxz     :     0.015273
      dyz     :     0.013737
      dx2y2   :     0.038376
      dxy     :     0.028259

 50 C s       :     2.915618  s :     2.915618
      pz      :     0.994643  p :     3.025261
      px      :     0.987611
      py      :     1.043007
      dz2     :     0.010490  d :     0.116481
      dxz     :     0.018812
      dyz     :     0.016535
      dx2y2   :     0.034466
      dxy     :     0.036178

 51 C s       :     2.898421  s :     2.898421
      pz      :     1.014834  p :     3.118240
      px      :     1.042730
      py      :     1.060677
      dz2     :     0.006900  d :     0.082293
      dxz     :     0.015639
      dyz     :     0.007943
      dx2y2   :     0.026282
      dxy     :     0.025529

 52 C s       :     2.877306  s :     2.877306
      pz      :     1.014685  p :     3.056509
      px      :     1.018376
      py      :     1.023448
      dz2     :     0.021728  d :     0.091907
      dxz     :     0.027829
      dyz     :     0.017120
      dx2y2   :     0.010655
      dxy     :     0.014576

 53 C s       :     2.871320  s :     2.871320
      pz      :     1.025809  p :     3.065251
      px      :     1.004031
      py      :     1.035410
      dz2     :     0.028858  d :     0.104560
      dxz     :     0.014057
      dyz     :     0.032750
      dx2y2   :     0.015757
      dxy     :     0.013139

 54 C s       :     2.871663  s :     2.871663
      pz      :     1.025954  p :     3.066028
      px      :     1.030718
      py      :     1.009356
      dz2     :     0.028533  d :     0.104518
      dxz     :     0.030731
      dyz     :     0.015146
      dx2y2   :     0.016595
      dxy     :     0.013513

 55 C s       :     2.914843  s :     2.914843
      pz      :     0.970920  p :     3.037589
      px      :     1.056462
      py      :     1.010207
      dz2     :     0.028883  d :     0.114467
      dxz     :     0.037278
      dyz     :     0.015544
      dx2y2   :     0.016071
      dxy     :     0.016690

 56 C s       :     2.898441  s :     2.898441
      pz      :     1.037102  p :     3.109311
      px      :     1.068781
      py      :     1.003428
      dz2     :     0.026077  d :     0.083500
      dxz     :     0.027507
      dyz     :     0.014802
      dx2y2   :     0.008961
      dxy     :     0.006153

 57 C s       :     2.909784  s :     2.909784
      pz      :     0.990240  p :     3.053365
      px      :     1.044398
      py      :     1.018726
      dz2     :     0.030507  d :     0.118033
      dxz     :     0.040414
      dyz     :     0.015111
      dx2y2   :     0.015904
      dxy     :     0.016097

 58 C s       :     2.898339  s :     2.898339
      pz      :     1.061558  p :     3.109506
      px      :     1.042739
      py      :     1.005209
      dz2     :     0.020200  d :     0.083500
      dxz     :     0.027761
      dyz     :     0.007364
      dx2y2   :     0.014563
      dxy     :     0.013611

 59 C s       :     2.915229  s :     2.915229
      pz      :     1.082564  p :     3.037651
      px      :     0.938450
      py      :     1.016637
      dz2     :     0.030326  d :     0.114346
      dxz     :     0.035578
      dyz     :     0.015892
      dx2y2   :     0.017100
      dxy     :     0.015450

 60 C s       :     2.914651  s :     2.914651
      pz      :     0.979117  p :     3.036927
      px      :     1.023919
      py      :     1.033891
      dz2     :     0.029285  d :     0.114441
      dxz     :     0.015238
      dyz     :     0.038474
      dx2y2   :     0.015498
      dxy     :     0.015946

 61 C s       :     2.898405  s :     2.898405
      pz      :     1.037569  p :     3.108671
      px      :     1.003933
      py      :     1.067169
      dz2     :     0.026545  d :     0.083483
      dxz     :     0.015647
      dyz     :     0.027221
      dx2y2   :     0.008051
      dxy     :     0.006019

 62 C s       :     2.909775  s :     2.909775
      pz      :     0.978936  p :     3.052762
      px      :     1.009926
      py      :     1.063901
      dz2     :     0.031606  d :     0.118040
      dxz     :     0.017165
      dyz     :     0.038301
      dx2y2   :     0.015053
      dxy     :     0.015915

 63 C s       :     2.898216  s :     2.898216
      pz      :     1.061177  p :     3.109101
      px      :     1.003540
      py      :     1.044384
      dz2     :     0.021065  d :     0.083497
      dxz     :     0.008781
      dyz     :     0.027042
      dx2y2   :     0.013790
      dxy     :     0.012819

 64 C s       :     2.915112  s :     2.915112
      pz      :     1.086576  p :     3.036925
      px      :     1.016600
      py      :     0.933749
      dz2     :     0.030820  d :     0.114249
      dxz     :     0.016404
      dyz     :     0.035507
      dx2y2   :     0.017231
      dxy     :     0.014288

 65 Cls       :     5.798474  s :     5.798474
      pz      :     3.842791  p :    11.092661
      px      :     3.484822
      py      :     3.765048
      dz2     :     0.004446  d :     0.034597
      dxz     :     0.008521
      dyz     :     0.002806
      dx2y2   :     0.006321
      dxy     :     0.012502

 66 Cls       :     5.799545  s :     5.799545
      pz      :     3.920465  p :    11.096316
      px      :     3.302347
      py      :     3.873505
      dz2     :     0.005824  d :     0.034655
      dxz     :     0.005084
      dyz     :     0.000612
      dx2y2   :     0.013844
      dxy     :     0.009291

 67 Cls       :     5.799359  s :     5.799359
      pz      :     3.456042  p :    11.095735
      px      :     3.793309
      py      :     3.846383
      dz2     :     0.009947  d :     0.034543
      dxz     :     0.011618
      dyz     :     0.008541
      dx2y2   :     0.001768
      dxy     :     0.002669

 68 Cls       :     5.807385  s :     5.807385
      pz      :     3.823931  p :    11.100755
      px      :     3.928267
      py      :     3.348558
      dz2     :     0.004062  d :     0.032129
      dxz     :     0.000670
      dyz     :     0.010792
      dx2y2   :     0.013057
      dxy     :     0.003547

 69 Cls       :     5.799156  s :     5.799156
      pz      :     3.482357  p :    11.094894
      px      :     3.917213
      py      :     3.695324
      dz2     :     0.008523  d :     0.034558
      dxz     :     0.004896
      dyz     :     0.016036
      dx2y2   :     0.002799
      dxy     :     0.002304

 70 Cls       :     5.799593  s :     5.799593
      pz      :     3.931494  p :    11.099563
      px      :     3.890284
      py      :     3.277784
      dz2     :     0.006163  d :     0.034493
      dxz     :     0.000484
      dyz     :     0.004299
      dx2y2   :     0.014755
      dxy     :     0.008793

 71 Cls       :     5.797519  s :     5.797519
      pz      :     3.491020  p :    11.103489
      px      :     3.700021
      py      :     3.912448
      dz2     :     0.007979  d :     0.033907
      dxz     :     0.015611
      dyz     :     0.004763
      dx2y2   :     0.002833
      dxy     :     0.002721

 72 Cls       :     5.797463  s :     5.797463
      pz      :     3.438272  p :    11.103026
      px      :     3.869503
      py      :     3.795251
      dz2     :     0.010182  d :     0.033914
      dxz     :     0.007662
      dyz     :     0.011952
      dx2y2   :     0.001841
      dxy     :     0.002277

 73 C s       :     2.913525  s :     2.913525
      pz      :     1.105551  p :     3.241248
      px      :     1.106313
      py      :     1.029383
      dz2     :     0.010383  d :     0.062011
      dxz     :     0.011011
      dyz     :     0.012538
      dx2y2   :     0.016338
      dxy     :     0.011743

 74 H s       :     0.871420  s :     0.871420
      pz      :     0.014471  p :     0.041756
      px      :     0.006403
      py      :     0.020883

 75 H s       :     0.853618  s :     0.853618
      pz      :     0.012889  p :     0.044070
      px      :     0.022726
      py      :     0.008456

 76 H s       :     0.862061  s :     0.862061
      pz      :     0.014273  p :     0.042614
      px      :     0.006287
      py      :     0.022054

 77 H s       :     0.862431  s :     0.862431
      pz      :     0.013758  p :     0.042612
      px      :     0.019918
      py      :     0.008936

 78 H s       :     0.864418  s :     0.864418
      pz      :     0.016105  p :     0.041979
      px      :     0.014301
      py      :     0.011572

 79 H s       :     0.873225  s :     0.873225
      pz      :     0.017043  p :     0.040884
      px      :     0.013244
      py      :     0.010596

 80 H s       :     0.872954  s :     0.872954
      pz      :     0.015878  p :     0.040892
      px      :     0.014010
      py      :     0.011004

 81 H s       :     0.864369  s :     0.864369
      pz      :     0.017510  p :     0.041978
      px      :     0.013325
      py      :     0.011143

 82 H s       :     0.862579  s :     0.862579
      pz      :     0.012718  p :     0.042644
      px      :     0.006562
      py      :     0.023364

 83 H s       :     0.872107  s :     0.872107
      pz      :     0.013056  p :     0.041721
      px      :     0.017871
      py      :     0.010793

 84 H s       :     0.853319  s :     0.853319
      pz      :     0.012063  p :     0.044119
      px      :     0.007231
      py      :     0.024824

 85 H s       :     0.862323  s :     0.862323
      pz      :     0.013140  p :     0.042548
      px      :     0.018718
      py      :     0.010690

 86 H s       :     0.857868  s :     0.857868
      pz      :     0.011871  p :     0.043713
      px      :     0.019814
      py      :     0.012028

 87 H s       :     0.848028  s :     0.848028
      pz      :     0.005385  p :     0.042979
      px      :     0.010651
      py      :     0.026943

 88 H s       :     0.848209  s :     0.848209
      pz      :     0.022866  p :     0.042966
      px      :     0.007539
      py      :     0.012560

 89 H s       :     0.848108  s :     0.848108
      pz      :     0.005287  p :     0.042969
      px      :     0.027761
      py      :     0.009920

 90 H s       :     0.848006  s :     0.848006
      pz      :     0.022135  p :     0.042972
      px      :     0.010500
      py      :     0.010338

 91 H s       :     0.858542  s :     0.858542
      pz      :     0.011208  p :     0.043692
      px      :     0.006277
      py      :     0.026207

 92 H s       :     0.848194  s :     0.848194
      pz      :     0.005493  p :     0.042970
      px      :     0.028699
      py      :     0.008778

 93 H s       :     0.848247  s :     0.848247
      pz      :     0.024144  p :     0.042964
      px      :     0.009172
      py      :     0.009647

 94 H s       :     0.848070  s :     0.848070
      pz      :     0.005240  p :     0.042969
      px      :     0.009413
      py      :     0.028317

 95 H s       :     0.848200  s :     0.848200
      pz      :     0.023180  p :     0.042961
      px      :     0.007812
      py      :     0.011969

 96 H s       :     0.872397  s :     0.872397
      pz      :     0.009788  p :     0.039659
      px      :     0.020429
      py      :     0.009442

 97 H s       :     0.864897  s :     0.864897
      pz      :     0.013813  p :     0.039791
      px      :     0.017782
      py      :     0.008196

 98 H s       :     0.871842  s :     0.871842
      pz      :     0.022257  p :     0.039669
      px      :     0.007673
      py      :     0.009740


SPIN
  0 C s       :     0.000000  s :     0.000000
      pz      :     0.000000  p :     0.000000
      px      :     0.000000
      py      :     0.000000
      dz2     :    -0.000000  d :    -0.000000
      dxz     :    -0.000000
      dyz     :    -0.000000
      dx2y2   :    -0.000000
      dxy     :    -0.000000

  1 C s       :    -0.000000  s :    -0.000000
      pz      :    -0.000000  p :    -0.000000
      px      :    -0.000000
      py      :    -0.000000
      dz2     :     0.000000  d :     0.000000
      dxz     :     0.000000
      dyz     :     0.000000
      dx2y2   :     0.000000
      dxy     :     0.000000

  2 C s       :     0.000000  s :     0.000000
      pz      :     0.000000  p :     0.000000
      px      :     0.000000
      py      :     0.000000
      dz2     :    -0.000000  d :    -0.000000
      dxz     :    -0.000000
      dyz     :    -0.000000
      dx2y2   :    -0.000000
      dxy     :    -0.000000

  3 C s       :    -0.000000  s :    -0.000000
      pz      :    -0.000000  p :    -0.000000
      px      :    -0.000000
      py      :    -0.000000
      dz2     :     0.000000  d :     0.000000
      dxz     :     0.000000
      dyz     :     0.000000
      dx2y2   :     0.000000
      dxy     :     0.000000

  4 C s       :     0.000000  s :     0.000000
      pz      :     0.000000  p :     0.000000
      px      :     0.000000
      py      :     0.000000
      dz2     :    -0.000000  d :    -0.000000
      dxz     :     0.000000
      dyz     :    -0.000000
      dx2y2   :    -0.000000
      dxy     :    -0.000000

  5 C s       :    -0.000000  s :    -0.000000
      pz      :    -0.000000  p :    -0.000000
      px      :    -0.000000
      py      :    -0.000000
      dz2     :     0.000000  d :     0.000000
      dxz     :     0.000000
      dyz     :     0.000000
      dx2y2   :     0.000000
      dxy     :     0.000000

  6 N s       :    -0.000000  s :    -0.000000
      pz      :     0.000000  p :     0.000000
      px      :    -0.000000
      py      :     0.000000
      dz2     :    -0.000000  d :    -0.000000
      dxz     :    -0.000000
      dyz     :    -0.000000
      dx2y2   :     0.000000
      dxy     :    -0.000000

  7 C s       :    -0.000000  s :    -0.000000
      pz      :    -0.000000  p :    -0.000000
      px      :    -0.000000
      py      :    -0.000000
      dz2     :     0.000000  d :     0.000000
      dxz     :     0.000000
      dyz     :     0.000000
      dx2y2   :     0.000000
      dxy     :     0.000000

  8 C s       :     0.000000  s :     0.000000
      pz      :    -0.000000  p :    -0.000000
      px      :    -0.000000
      py      :    -0.000000
      dz2     :     0.000000  d :     0.000000
      dxz     :     0.000000
      dyz     :     0.000000
      dx2y2   :     0.000000
      dxy     :    -0.000000

  9 C s       :    -0.000000  s :    -0.000000
      pz      :     0.000000  p :     0.000000
      px      :     0.000000
      py      :    -0.000000
      dz2     :     0.000000  d :     0.000000
      dxz     :    -0.000000
      dyz     :    -0.000000
      dx2y2   :    -0.000000
      dxy     :     0.000000

 10 C s       :     0.000000  s :     0.000000
      pz      :    -0.000000  p :    -0.000000
      px      :    -0.000000
      py      :    -0.000000
      dz2     :    -0.000000  d :     0.000000
      dxz     :     0.000000
      dyz     :     0.000000
      dx2y2   :    -0.000000
      dxy     :    -0.000000

 11 C s       :    -0.000000  s :    -0.000000
      pz      :     0.000000  p :     0.000000
      px      :     0.000000
      py      :    -0.000000
      dz2     :    -0.000000  d :    -0.000000
      dxz     :    -0.000000
      dyz     :    -0.000000
      dx2y2   :    -0.000000
      dxy     :    -0.000000

 12 C s       :    -0.000000  s :    -0.000000
      pz      :    -0.000000  p :    -0.000000
      px      :    -0.000000
      py      :     0.000000
      dz2     :    -0.000000  d :     0.000000
      dxz     :     0.000000
      dyz     :    -0.000000
      dx2y2   :    -0.000000
      dxy     :     0.000000

 13 C s       :    -0.000000  s :    -0.000000
      pz      :    -0.000000  p :     0.000000
      px      :     0.000000
      py      :     0.000000
      dz2     :    -0.000000  d :    -0.000000
      dxz     :    -0.000000
      dyz     :    -0.000000
      dx2y2   :     0.000000
      dxy     :    -0.000000

 14 C s       :     0.000000  s :     0.000000
      pz      :     0.000000  p :     0.000000
      px      :     0.000000
      py      :     0.000000
      dz2     :    -0.000000  d :    -0.000000
      dxz     :    -0.000000
      dyz     :    -0.000000
      dx2y2   :    -0.000000
      dxy     :    -0.000000

 15 C s       :    -0.000000  s :    -0.000000
      pz      :    -0.000000  p :    -0.000000
      px      :    -0.000000
      py      :    -0.000000
      dz2     :     0.000000  d :     0.000000
      dxz     :     0.000000
      dyz     :     0.000000
      dx2y2   :     0.000000
      dxy     :     0.000000

 16 C s       :     0.000000  s :     0.000000
      pz      :     0.000000  p :     0.000000
      px      :     0.000000
      py      :     0.000000
      dz2     :    -0.000000  d :    -0.000000
      dxz     :    -0.000000
      dyz     :    -0.000000
      dx2y2   :    -0.000000
      dxy     :    -0.000000

 17 C s       :    -0.000000  s :    -0.000000
      pz      :    -0.000000  p :    -0.000000
      px      :    -0.000000
      py      :    -0.000000
      dz2     :     0.000000  d :     0.000000
      dxz     :     0.000000
      dyz     :     0.000000
      dx2y2   :     0.000000
      dxy     :     0.000000

 18 C s       :     0.000000  s :     0.000000
      pz      :     0.000000  p :     0.000000
      px      :     0.000000
      py      :     0.000000
      dz2     :    -0.000000  d :    -0.000000
      dxz     :    -0.000000
      dyz     :    -0.000000
      dx2y2   :    -0.000000
      dxy     :    -0.000000

 19 C s       :     0.000000  s :     0.000000
      pz      :     0.000000  p :     0.000000
      px      :     0.000000
      py      :     0.000000
      dz2     :    -0.000000  d :    -0.000000
      dxz     :    -0.000000
      dyz     :    -0.000000
      dx2y2   :     0.000000
      dxy     :    -0.000000

 20 N s       :    -0.000000  s :    -0.000000
      pz      :    -0.000000  p :    -0.000000
      px      :    -0.000000
      py      :    -0.000000
      dz2     :     0.000000  d :     0.000000
      dxz     :     0.000000
      dyz     :     0.000000
      dx2y2   :     0.000000
      dxy     :     0.000000

 21 C s       :     0.000000  s :     0.000000
      pz      :     0.000000  p :     0.000000
      px      :     0.000000
      py      :     0.000000
      dz2     :     0.000000  d :    -0.000000
      dxz     :    -0.000000
      dyz     :    -0.000000
      dx2y2   :    -0.000000
      dxy     :    -0.000000

 22 C s       :    -0.000000  s :    -0.000000
      pz      :    -0.000000  p :    -0.000000
      px      :    -0.000000
      py      :    -0.000000
      dz2     :     0.000000  d :     0.000000
      dxz     :     0.000000
      dyz     :     0.000000
      dx2y2   :     0.000000
      dxy     :     0.000000

 23 C s       :     0.000000  s :     0.000000
      pz      :     0.000000  p :     0.000000
      px      :     0.000000
      py      :     0.000000
      dz2     :     0.000000  d :    -0.000000
      dxz     :    -0.000000
      dyz     :    -0.000000
      dx2y2   :    -0.000000
      dxy     :    -0.000000

 24 C s       :    -0.000000  s :    -0.000000
      pz      :    -0.000000  p :    -0.000000
      px      :    -0.000000
      py      :    -0.000000
      dz2     :     0.000000  d :     0.000000
      dxz     :     0.000000
      dyz     :     0.000000
      dx2y2   :     0.000000
      dxy     :     0.000000

 25 C s       :     0.000000  s :     0.000000
      pz      :     0.000000  p :     0.000000
      px      :     0.000000
      py      :     0.000000
      dz2     :    -0.000000  d :    -0.000000
      dxz     :    -0.000000
      dyz     :    -0.000000
      dx2y2   :    -0.000000
      dxy     :    -0.000000

 26 C s       :    -0.000000  s :    -0.000000
      pz      :    -0.000000  p :    -0.000000
      px      :    -0.000000
      py      :    -0.000000
      dz2     :     0.000000  d :     0.000000
      dxz     :     0.000000
      dyz     :     0.000000
      dx2y2   :     0.000000
      dxy     :     0.000000

 27 C s       :    -0.000000  s :    -0.000000
      pz      :    -0.000000  p :    -0.000000
      px      :    -0.000000
      py      :    -0.000000
      dz2     :     0.000000  d :     0.000000
      dxz     :     0.000000
      dyz     :     0.000000
      dx2y2   :     0.000000
      dxy     :     0.000000

 28 C s       :     0.000000  s :     0.000000
      pz      :     0.000000  p :     0.000000
      px      :     0.000000
      py      :     0.000000
      dz2     :    -0.000000  d :    -0.000000
      dxz     :     0.000000
      dyz     :    -0.000000
      dx2y2   :    -0.000000
      dxy     :    -0.000000

 29 C s       :    -0.000000  s :    -0.000000
      pz      :    -0.000000  p :    -0.000000
      px      :    -0.000000
      py      :    -0.000000
      dz2     :     0.000000  d :     0.000000
      dxz     :     0.000000
      dyz     :     0.000000
      dx2y2   :     0.000000
      dxy     :     0.000000

 30 C s       :     0.000000  s :     0.000000
      pz      :     0.000000  p :     0.000000
      px      :     0.000000
      py      :     0.000000
      dz2     :    -0.000000  d :    -0.000000
      dxz     :    -0.000000
      dyz     :    -0.000000
      dx2y2   :    -0.000000
      dxy     :    -0.000000

 31 C s       :    -0.000000  s :    -0.000000
      pz      :    -0.000000  p :    -0.000000
      px      :    -0.000000
      py      :    -0.000000
      dz2     :     0.000000  d :     0.000000
      dxz     :     0.000000
      dyz     :     0.000000
      dx2y2   :     0.000000
      dxy     :     0.000000

 32 C s       :     0.000000  s :     0.000000
      pz      :     0.000000  p :     0.000000
      px      :     0.000000
      py      :     0.000000
      dz2     :    -0.000000  d :    -0.000000
      dxz     :    -0.000000
      dyz     :    -0.000000
      dx2y2   :    -0.000000
      dxy     :    -0.000000

 33 C s       :     0.000000  s :     0.000000
      pz      :     0.000000  p :     0.000000
      px      :     0.000000
      py      :     0.000000
      dz2     :    -0.000000  d :    -0.000000
      dxz     :    -0.000000
      dyz     :    -0.000000
      dx2y2   :    -0.000000
      dxy     :    -0.000000

 34 C s       :    -0.000000  s :    -0.000000
      pz      :    -0.000000  p :    -0.000000
      px      :    -0.000000
      py      :    -0.000000
      dz2     :     0.000000  d :     0.000000
      dxz     :     0.000000
      dyz     :     0.000000
      dx2y2   :     0.000000
      dxy     :     0.000000

 35 C s       :     0.000000  s :     0.000000
      pz      :     0.000000  p :     0.000000
      px      :     0.000000
      py      :     0.000000
      dz2     :    -0.000000  d :    -0.000000
      dxz     :    -0.000000
      dyz     :    -0.000000
      dx2y2   :    -0.000000
      dxy     :    -0.000000

 36 C s       :    -0.000000  s :    -0.000000
      pz      :    -0.000000  p :    -0.000000
      px      :    -0.000000
      py      :    -0.000000
      dz2     :     0.000000  d :     0.000000
      dxz     :     0.000000
      dyz     :     0.000000
      dx2y2   :     0.000000
      dxy     :     0.000000

 37 C s       :     0.000000  s :     0.000000
      pz      :     0.000000  p :     0.000000
      px      :     0.000000
      py      :     0.000000
      dz2     :    -0.000000  d :    -0.000000
      dxz     :     0.000000
      dyz     :    -0.000000
      dx2y2   :    -0.000000
      dxy     :    -0.000000

 38 Cls       :     0.000000  s :     0.000000
      pz      :     0.000000  p :     0.000000
      px      :     0.000000
      py      :    -0.000000
      dz2     :     0.000000  d :     0.000000
      dxz     :     0.000000
      dyz     :     0.000000
      dx2y2   :     0.000000
      dxy     :     0.000000

 39 Cls       :     0.000000  s :     0.000000
      pz      :    -0.000000  p :     0.000000
      px      :     0.000000
      py      :    -0.000000
      dz2     :     0.000000  d :     0.000000
      dxz     :     0.000000
      dyz     :     0.000000
      dx2y2   :     0.000000
      dxy     :     0.000000

 40 Cls       :    -0.000000  s :    -0.000000
      pz      :     0.000000  p :     0.000000
      px      :     0.000000
      py      :     0.000000
      dz2     :     0.000000  d :     0.000000
      dxz     :     0.000000
      dyz     :     0.000000
      dx2y2   :     0.000000
      dxy     :     0.000000

 41 Cls       :    -0.000000  s :    -0.000000
      pz      :     0.000000  p :     0.000000
      px      :    -0.000000
      py      :     0.000000
      dz2     :     0.000000  d :     0.000000
      dxz     :     0.000000
      dyz     :     0.000000
      dx2y2   :     0.000000
      dxy     :     0.000000

 42 Cls       :     0.000000  s :     0.000000
      pz      :     0.000000  p :     0.000000
      px      :     0.000000
      py      :     0.000000
      dz2     :     0.000000  d :     0.000000
      dxz     :     0.000000
      dyz     :     0.000000
      dx2y2   :     0.000000
      dxy     :     0.000000

 43 Cls       :    -0.000000  s :    -0.000000
      pz      :    -0.000000  p :     0.000000
      px      :     0.000000
      py      :     0.000000
      dz2     :     0.000000  d :     0.000000
      dxz     :     0.000000
      dyz     :     0.000000
      dx2y2   :     0.000000
      dxy     :     0.000000

 44 Cls       :     0.000000  s :     0.000000
      pz      :     0.000000  p :     0.000000
      px      :     0.000000
      py      :     0.000000
      dz2     :     0.000000  d :     0.000000
      dxz     :     0.000000
      dyz     :     0.000000
      dx2y2   :     0.000000
      dxy     :     0.000000

 45 Cls       :     0.000000  s :     0.000000
      pz      :    -0.000000  p :     0.000000
      px      :     0.000000
      py      :     0.000000
      dz2     :     0.000000  d :     0.000000
      dxz     :     0.000000
      dyz     :     0.000000
      dx2y2   :     0.000000
      dxy     :     0.000000

 46 C s       :    -0.000000  s :    -0.000000
      pz      :    -0.000000  p :    -0.000000
      px      :    -0.000000
      py      :    -0.000000
      dz2     :     0.000000  d :     0.000000
      dxz     :     0.000000
      dyz     :     0.000000
      dx2y2   :     0.000000
      dxy     :    -0.000000

 47 N s       :     0.000000  s :     0.000000
      pz      :     0.000000  p :     0.000000
      px      :    -0.000000
      py      :     0.000000
      dz2     :    -0.000000  d :    -0.000000
      dxz     :    -0.000000
      dyz     :    -0.000000
      dx2y2   :    -0.000000
      dxy     :    -0.000000

 48 C s       :    -0.000000  s :    -0.000000
      pz      :    -0.000000  p :    -0.000000
      px      :    -0.000000
      py      :    -0.000000
      dz2     :    -0.000000  d :     0.000000
      dxz     :     0.000000
      dyz     :     0.000000
      dx2y2   :     0.000000
      dxy     :     0.000000

 49 C s       :     0.000000  s :     0.000000
      pz      :     0.000000  p :     0.000000
      px      :     0.000000
      py      :     0.000000
      dz2     :    -0.000000  d :    -0.000000
      dxz     :    -0.000000
      dyz     :    -0.000000
      dx2y2   :    -0.000000
      dxy     :    -0.000000

 50 C s       :    -0.000000  s :    -0.000000
      pz      :    -0.000000  p :    -0.000000
      px      :    -0.000000
      py      :    -0.000000
      dz2     :    -0.000000  d :     0.000000
      dxz     :     0.000000
      dyz     :     0.000000
      dx2y2   :     0.000000
      dxy     :     0.000000

 51 C s       :     0.000000  s :     0.000000
      pz      :     0.000000  p :     0.000000
      px      :     0.000000
      py      :     0.000000
      dz2     :    -0.000000  d :    -0.000000
      dxz     :    -0.000000
      dyz     :    -0.000000
      dx2y2   :    -0.000000
      dxy     :    -0.000000

 52 C s       :    -0.000000  s :    -0.000000
      pz      :    -0.000000  p :    -0.000000
      px      :    -0.000000
      py      :    -0.000000
      dz2     :     0.000000  d :     0.000000
      dxz     :     0.000000
      dyz     :     0.000000
      dx2y2   :     0.000000
      dxy     :     0.000000

 53 C s       :     0.000000  s :     0.000000
      pz      :     0.000000  p :     0.000000
      px      :     0.000000
      py      :     0.000000
      dz2     :    -0.000000  d :    -0.000000
      dxz     :    -0.000000
      dyz     :    -0.000000
      dx2y2   :    -0.000000
      dxy     :    -0.000000

 54 C s       :     0.000000  s :     0.000000
      pz      :     0.000000  p :     0.000000
      px      :     0.000000
      py      :     0.000000
      dz2     :    -0.000000  d :    -0.000000
      dxz     :    -0.000000
      dyz     :    -0.000000
      dx2y2   :    -0.000000
      dxy     :    -0.000000

 55 C s       :    -0.000000  s :    -0.000000
      pz      :    -0.000000  p :    -0.000000
      px      :    -0.000000
      py      :    -0.000000
      dz2     :     0.000000  d :     0.000000
      dxz     :     0.000000
      dyz     :     0.000000
      dx2y2   :     0.000000
      dxy     :     0.000000

 56 C s       :    -0.000000  s :    -0.000000
      pz      :     0.000000  p :     0.000000
      px      :     0.000000
      py      :     0.000000
      dz2     :    -0.000000  d :    -0.000000
      dxz     :    -0.000000
      dyz     :    -0.000000
      dx2y2   :    -0.000000
      dxy     :    -0.000000

 57 C s       :    -0.000000  s :    -0.000000
      pz      :    -0.000000  p :    -0.000000
      px      :    -0.000000
      py      :    -0.000000
      dz2     :     0.000000  d :     0.000000
      dxz     :     0.000000
      dyz     :     0.000000
      dx2y2   :     0.000000
      dxy     :     0.000000

 58 C s       :     0.000000  s :     0.000000
      pz      :     0.000000  p :     0.000000
      px      :     0.000000
      py      :     0.000000
      dz2     :    -0.000000  d :    -0.000000
      dxz     :    -0.000000
      dyz     :    -0.000000
      dx2y2   :    -0.000000
      dxy     :    -0.000000

 59 C s       :    -0.000000  s :    -0.000000
      pz      :    -0.000000  p :    -0.000000
      px      :    -0.000000
      py      :    -0.000000
      dz2     :     0.000000  d :     0.000000
      dxz     :     0.000000
      dyz     :     0.000000
      dx2y2   :     0.000000
      dxy     :     0.000000

 60 C s       :    -0.000000  s :    -0.000000
      pz      :    -0.000000  p :    -0.000000
      px      :    -0.000000
      py      :    -0.000000
      dz2     :     0.000000  d :     0.000000
      dxz     :     0.000000
      dyz     :     0.000000
      dx2y2   :     0.000000
      dxy     :     0.000000

 61 C s       :     0.000000  s :     0.000000
      pz      :     0.000000  p :     0.000000
      px      :     0.000000
      py      :     0.000000
      dz2     :    -0.000000  d :    -0.000000
      dxz     :    -0.000000
      dyz     :    -0.000000
      dx2y2   :    -0.000000
      dxy     :    -0.000000

 62 C s       :    -0.000000  s :    -0.000000
      pz      :    -0.000000  p :    -0.000000
      px      :    -0.000000
      py      :    -0.000000
      dz2     :     0.000000  d :     0.000000
      dxz     :     0.000000
      dyz     :     0.000000
      dx2y2   :     0.000000
      dxy     :     0.000000

 63 C s       :     0.000000  s :     0.000000
      pz      :    -0.000000  p :     0.000000
      px      :     0.000000
      py      :     0.000000
      dz2     :    -0.000000  d :    -0.000000
      dxz     :    -0.000000
      dyz     :    -0.000000
      dx2y2   :    -0.000000
      dxy     :    -0.000000

 64 C s       :    -0.000000  s :    -0.000000
      pz      :    -0.000000  p :    -0.000000
      px      :    -0.000000
      py      :    -0.000000
      dz2     :     0.000000  d :     0.000000
      dxz     :     0.000000
      dyz     :     0.000000
      dx2y2   :     0.000000
      dxy     :     0.000000

 65 Cls       :     0.000000  s :     0.000000
      pz      :    -0.000000  p :    -0.000000
      px      :     0.000000
      py      :    -0.000000
      dz2     :    -0.000000  d :    -0.000000
      dxz     :    -0.000000
      dyz     :    -0.000000
      dx2y2   :    -0.000000
      dxy     :    -0.000000

 66 Cls       :    -0.000000  s :    -0.000000
      pz      :     0.000000  p :    -0.000000
      px      :    -0.000000
      py      :    -0.000000
      dz2     :    -0.000000  d :    -0.000000
      dxz     :    -0.000000
      dyz     :     0.000000
      dx2y2   :    -0.000000
      dxy     :    -0.000000

 67 Cls       :     0.000000  s :     0.000000
      pz      :    -0.000000  p :    -0.000000
      px      :     0.000000
      py      :    -0.000000
      dz2     :    -0.000000  d :    -0.000000
      dxz     :    -0.000000
      dyz     :    -0.000000
      dx2y2   :    -0.000000
      dxy     :    -0.000000

 68 Cls       :     0.000000  s :     0.000000
      pz      :    -0.000000  p :    -0.000000
      px      :    -0.000000
      py      :     0.000000
      dz2     :    -0.000000  d :    -0.000000
      dxz     :    -0.000000
      dyz     :    -0.000000
      dx2y2   :     0.000000
      dxy     :    -0.000000

 69 Cls       :     0.000000  s :     0.000000
      pz      :    -0.000000  p :    -0.000000
      px      :    -0.000000
      py      :    -0.000000
      dz2     :    -0.000000  d :    -0.000000
      dxz     :    -0.000000
      dyz     :    -0.000000
      dx2y2   :    -0.000000
      dxy     :    -0.000000

 70 Cls       :    -0.000000  s :    -0.000000
      pz      :     0.000000  p :    -0.000000
      px      :    -0.000000
      py      :     0.000000
      dz2     :    -0.000000  d :    -0.000000
      dxz     :     0.000000
      dyz     :    -0.000000
      dx2y2   :    -0.000000
      dxy     :    -0.000000

 71 Cls       :    -0.000000  s :    -0.000000
      pz      :     0.000000  p :    -0.000000
      px      :     0.000000
      py      :    -0.000000
      dz2     :    -0.000000  d :    -0.000000
      dxz     :    -0.000000
      dyz     :    -0.000000
      dx2y2   :    -0.000000
      dxy     :    -0.000000

 72 Cls       :    -0.000000  s :    -0.000000
      pz      :     0.000000  p :    -0.000000
      px      :    -0.000000
      py      :    -0.000000
      dz2     :    -0.000000  d :    -0.000000
      dxz     :    -0.000000
      dyz     :    -0.000000
      dx2y2   :    -0.000000
      dxy     :    -0.000000

 73 C s       :    -0.000000  s :    -0.000000
      pz      :    -0.000000  p :    -0.000000
      px      :    -0.000000
      py      :     0.000000
      dz2     :     0.000000  d :     0.000000
      dxz     :    -0.000000
      dyz     :     0.000000
      dx2y2   :     0.000000
      dxy     :     0.000000

 74 H s       :    -0.000000  s :    -0.000000
      pz      :     0.000000  p :     0.000000
      px      :     0.000000
      py      :     0.000000

 75 H s       :    -0.000000  s :    -0.000000
      pz      :     0.000000  p :     0.000000
      px      :     0.000000
      py      :     0.000000

 76 H s       :     0.000000  s :     0.000000
      pz      :    -0.000000  p :    -0.000000
      px      :    -0.000000
      py      :    -0.000000

 77 H s       :     0.000000  s :     0.000000
      pz      :    -0.000000  p :    -0.000000
      px      :    -0.000000
      py      :    -0.000000

 78 H s       :    -0.000000  s :    -0.000000
      pz      :     0.000000  p :     0.000000
      px      :     0.000000
      py      :    -0.000000

 79 H s       :    -0.000000  s :    -0.000000
      pz      :    -0.000000  p :     0.000000
      px      :    -0.000000
      py      :     0.000000

 80 H s       :     0.000000  s :     0.000000
      pz      :    -0.000000  p :    -0.000000
      px      :    -0.000000
      py      :     0.000000

 81 H s       :    -0.000000  s :    -0.000000
      pz      :     0.000000  p :     0.000000
      px      :    -0.000000
      py      :     0.000000

 82 H s       :    -0.000000  s :    -0.000000
      pz      :     0.000000  p :     0.000000
      px      :     0.000000
      py      :     0.000000

 83 H s       :     0.000000  s :     0.000000
      pz      :    -0.000000  p :    -0.000000
      px      :    -0.000000
      py      :    -0.000000

 84 H s       :     0.000000  s :     0.000000
      pz      :    -0.000000  p :    -0.000000
      px      :    -0.000000
      py      :    -0.000000

 85 H s       :    -0.000000  s :    -0.000000
      pz      :     0.000000  p :     0.000000
      px      :     0.000000
      py      :     0.000000

 86 H s       :     0.000000  s :     0.000000
      pz      :    -0.000000  p :    -0.000000
      px      :    -0.000000
      py      :    -0.000000

 87 H s       :     0.000000  s :     0.000000
      pz      :    -0.000000  p :    -0.000000
      px      :    -0.000000
      py      :    -0.000000

 88 H s       :     0.000000  s :     0.000000
      pz      :    -0.000000  p :    -0.000000
      px      :    -0.000000
      py      :    -0.000000

 89 H s       :     0.000000  s :     0.000000
      pz      :    -0.000000  p :    -0.000000
      px      :    -0.000000
      py      :    -0.000000

 90 H s       :     0.000000  s :     0.000000
      pz      :    -0.000000  p :    -0.000000
      px      :    -0.000000
      py      :    -0.000000

 91 H s       :    -0.000000  s :    -0.000000
      pz      :     0.000000  p :     0.000000
      px      :    -0.000000
      py      :     0.000000

 92 H s       :    -0.000000  s :    -0.000000
      pz      :     0.000000  p :     0.000000
      px      :     0.000000
      py      :     0.000000

 93 H s       :    -0.000000  s :    -0.000000
      pz      :    -0.000000  p :     0.000000
      px      :     0.000000
      py      :     0.000000

 94 H s       :    -0.000000  s :    -0.000000
      pz      :    -0.000000  p :     0.000000
      px      :     0.000000
      py      :     0.000000

 95 H s       :    -0.000000  s :    -0.000000
      pz      :     0.000000  p :     0.000000
      px      :     0.000000
      py      :    -0.000000

 96 H s       :     0.000000  s :     0.000000
      pz      :    -0.000000  p :     0.000000
      px      :     0.000000
      py      :     0.000000

 97 H s       :    -0.000000  s :    -0.000000
      pz      :     0.000000  p :     0.000000
      px      :     0.000000
      py      :    -0.000000

 98 H s       :     0.000000  s :     0.000000
      pz      :     0.000000  p :     0.000000
      px      :    -0.000000
      py      :     0.000000



                      *****************************
                      * MAYER POPULATION ANALYSIS *
                      *****************************

  NA   - Mulliken gross atomic population
  ZA   - Total nuclear charge
  QA   - Mulliken gross atomic charge
  VA   - Mayer's total valence
  BVA  - Mayer's bonded valence
  FA   - Mayer's free valence

  ATOM       NA         ZA         QA         VA         BVA        FA
  0 C      6.1525     6.0000    -0.1525     3.9360     3.9360    -0.0000
  1 C      5.9677     6.0000     0.0323     3.9778     3.9778     0.0000
  2 C      6.1294     6.0000    -0.1294     3.9049     3.9049    -0.0000
  3 C      6.1435     6.0000    -0.1435     3.8843     3.8843    -0.0000
  4 C      5.7563     6.0000     0.2437     3.8922     3.8922     0.0000
  5 C      6.1504     6.0000    -0.1504     3.9056     3.9056     0.0000
  6 N      7.6210     7.0000    -0.6210     3.0159     3.0159    -0.0000
  7 C      5.7576     6.0000     0.2424     3.8932     3.8932    -0.0000
  8 C      5.8268     6.0000     0.1732     3.9317     3.9317    -0.0000
  9 C      6.1155     6.0000    -0.1155     3.8920     3.8920    -0.0000
 10 C      6.1598     6.0000    -0.1598     3.9447     3.9447    -0.0000
 11 C      5.9166     6.0000     0.0834     3.9373     3.9373    -0.0000
 12 C      6.1588     6.0000    -0.1588     3.9424     3.9424    -0.0000
 13 C      6.1146     6.0000    -0.1146     3.8919     3.8919    -0.0000
 14 C      6.1489     6.0000    -0.1489     3.9109     3.9109    -0.0000
 15 C      6.1518     6.0000    -0.1518     3.9342     3.9342    -0.0000
 16 C      5.9679     6.0000     0.0321     3.9786     3.9786    -0.0000
 17 C      6.1306     6.0000    -0.1306     3.9056     3.9056    -0.0000
 18 C      6.1456     6.0000    -0.1456     3.8783     3.8783    -0.0000
 19 C      5.7806     6.0000     0.2194     3.9536     3.9536     0.0000
 20 N      7.4404     7.0000    -0.4404     2.9924     2.9924    -0.0000
 21 C      5.9562     6.0000     0.0438     3.9515     3.9515     0.0000
 22 C      5.9094     6.0000     0.0906     3.9003     3.9003    -0.0000
 23 C      6.1354     6.0000    -0.1354     3.9624     3.9624    -0.0000
 24 C      6.0955     6.0000    -0.0955     3.8202     3.8202     0.0000
 25 C      6.1340     6.0000    -0.1340     3.9792     3.9792    -0.0000
 26 C      5.8836     6.0000     0.1164     3.9325     3.9325     0.0000
 27 C      5.8876     6.0000     0.1124     3.9305     3.9305    -0.0000
 28 C      6.1586     6.0000    -0.1586     3.9780     3.9780     0.0000
 29 C      6.0618     6.0000    -0.0618     3.8635     3.8635    -0.0000
 30 C      6.1465     6.0000    -0.1465     3.9919     3.9919    -0.0000
 31 C      6.0617     6.0000    -0.0617     3.8638     3.8638    -0.0000
 32 C      6.1581     6.0000    -0.1581     3.9759     3.9759    -0.0000
 33 C      6.1579     6.0000    -0.1579     3.9787     3.9787     0.0000
 34 C      6.0614     6.0000    -0.0614     3.8638     3.8638    -0.0000
 35 C      6.1462     6.0000    -0.1462     3.9924     3.9924     0.0000
 36 C      6.0608     6.0000    -0.0608     3.8643     3.8643     0.0000
 37 C      6.1571     6.0000    -0.1571     3.9767     3.9767     0.0000
 38 Cl    16.9422    17.0000     0.0578     1.1718     1.1718    -0.0000
 39 Cl    16.9492    17.0000     0.0508     1.1633     1.1633    -0.0000
 40 Cl    16.9477    17.0000     0.0523     1.1651     1.1651    -0.0000
 41 Cl    16.9518    17.0000     0.0482     1.1745     1.1745    -0.0000
 42 Cl    16.9476    17.0000     0.0524     1.1649     1.1649    -0.0000
 43 Cl    16.9515    17.0000     0.0485     1.1614     1.1614    -0.0000
 44 Cl    16.9608    17.0000     0.0392     1.1334     1.1334    -0.0000
 45 Cl    16.9606    17.0000     0.0394     1.1338     1.1338     0.0000
 46 C      5.7801     6.0000     0.2199     3.9537     3.9537     0.0000
 47 N      7.4408     7.0000    -0.4408     2.9923     2.9923     0.0000
 48 C      5.9566     6.0000     0.0434     3.9519     3.9519    -0.0000
 49 C      5.9093     6.0000     0.0907     3.9009     3.9009     0.0000
 50 C      6.1356     6.0000    -0.1356     3.9619     3.9619    -0.0000
 51 C      6.0955     6.0000    -0.0955     3.8203     3.8203    -0.0000
 52 C      6.1347     6.0000    -0.1347     3.9787     3.9787    -0.0000
 53 C      5.8832     6.0000     0.1168     3.9331     3.9331    -0.0000
 54 C      5.8876     6.0000     0.1124     3.9310     3.9310    -0.0000
 55 C      6.1587     6.0000    -0.1587     3.9776     3.9776    -0.0000
 56 C      6.0619     6.0000    -0.0619     3.8637     3.8637     0.0000
 57 C      6.1465     6.0000    -0.1465     3.9917     3.9917    -0.0000
 58 C      6.0618     6.0000    -0.0618     3.8640     3.8640    -0.0000
 59 C      6.1583     6.0000    -0.1583     3.9759     3.9759     0.0000
 60 C      6.1582     6.0000    -0.1582     3.9785     3.9785    -0.0000
 61 C      6.0613     6.0000    -0.0613     3.8638     3.8638     0.0000
 62 C      6.1463     6.0000    -0.1463     3.9921     3.9921    -0.0000
 63 C      6.0608     6.0000    -0.0608     3.8648     3.8648    -0.0000
 64 C      6.1570     6.0000    -0.1570     3.9759     3.9759    -0.0000
 65 Cl    16.9438    17.0000     0.0562     1.1705     1.1705    -0.0000
 66 Cl    16.9491    17.0000     0.0509     1.1634     1.1634    -0.0000
 67 Cl    16.9485    17.0000     0.0515     1.1644     1.1644    -0.0000
 68 Cl    16.9511    17.0000     0.0489     1.1753     1.1753    -0.0000
 69 Cl    16.9475    17.0000     0.0525     1.1650     1.1650    -0.0000
 70 Cl    16.9532    17.0000     0.0468     1.1601     1.1601    -0.0000
 71 Cl    16.9613    17.0000     0.0387     1.1329     1.1329    -0.0000
 72 Cl    16.9608    17.0000     0.0392     1.1335     1.1335    -0.0000
 73 C      6.4457     6.0000    -0.4457     3.8560     3.8560    -0.0000
 74 H      0.8635     1.0000     0.1365     0.9540     0.9540     0.0000
 75 H      0.8291     1.0000     0.1709     0.9565     0.9565     0.0000
 76 H      0.8464     1.0000     0.1536     0.9538     0.9538     0.0000
 77 H      0.8457     1.0000     0.1543     0.9536     0.9536     0.0000
 78 H      0.8511     1.0000     0.1489     0.9527     0.9527    -0.0000
 79 H      0.8682     1.0000     0.1318     0.9543     0.9543     0.0000
 80 H      0.8678     1.0000     0.1322     0.9542     0.9542     0.0000
 81 H      0.8511     1.0000     0.1489     0.9528     0.9528    -0.0000
 82 H      0.8476     1.0000     0.1524     0.9544     0.9544    -0.0000
 83 H      0.8650     1.0000     0.1350     0.9543     0.9543    -0.0000
 84 H      0.8284     1.0000     0.1716     0.9564     0.9564     0.0000
 85 H      0.8452     1.0000     0.1548     0.9532     0.9532     0.0000
 86 H      0.8418     1.0000     0.1582     0.9554     0.9554     0.0000
 87 H      0.8231     1.0000     0.1769     0.9502     0.9502    -0.0000
 88 H      0.8236     1.0000     0.1764     0.9504     0.9504     0.0000
 89 H      0.8234     1.0000     0.1766     0.9503     0.9503    -0.0000
 90 H      0.8232     1.0000     0.1768     0.9503     0.9503     0.0000
 91 H      0.8433     1.0000     0.1567     0.9558     0.9558     0.0000
 92 H      0.8234     1.0000     0.1766     0.9503     0.9503     0.0000
 93 H      0.8236     1.0000     0.1764     0.9504     0.9504    -0.0000
 94 H      0.8233     1.0000     0.1767     0.9503     0.9503     0.0000
 95 H      0.8237     1.0000     0.1763     0.9504     0.9504    -0.0000
 96 H      0.8533     1.0000     0.1467     0.9482     0.9482    -0.0000
 97 H      0.8383     1.0000     0.1617     0.9384     0.9384     0.0000
 98 H      0.8525     1.0000     0.1475     0.9477     0.9477    -0.0000

  Mayer bond orders larger than 0.100000
B(  0-C ,  1-C ) :   1.3697 B(  0-C ,  5-C ) :   1.4736 B(  0-C , 74-H ) :   0.9276 
B(  1-C ,  2-C ) :   1.3590 B(  1-C , 19-C ) :   1.0993 B(  2-C ,  3-C ) :   1.4620 
B(  2-C , 75-H ) :   0.9143 B(  3-C ,  4-C ) :   1.3594 B(  3-C , 76-H ) :   0.9254 
B(  4-C ,  5-C ) :   1.3578 B(  4-C ,  6-N ) :   0.9560 B(  5-C , 77-H ) :   0.9245 
B(  6-N ,  7-C ) :   0.9570 B(  6-N ,  8-C ) :   0.9126 B(  7-C , 14-C ) :   1.3646 
B(  7-C , 18-C ) :   1.3524 B(  8-C ,  9-C ) :   1.4042 B(  8-C , 13-C ) :   1.4020 
B(  9-C , 10-C ) :   1.4322 B(  9-C , 78-H ) :   0.9289 B( 10-C , 11-C ) :   1.4286 
B( 10-C , 79-H ) :   0.9352 B( 11-C , 12-C ) :   1.4252 B( 11-C , 73-C ) :   0.9936 
B( 12-C , 13-C ) :   1.4346 B( 12-C , 80-H ) :   0.9353 B( 13-C , 81-H ) :   0.9289 
B( 14-C , 15-C ) :   1.4722 B( 14-C , 82-H ) :   0.9243 B( 15-C , 16-C ) :   1.3704 
B( 15-C , 83-H ) :   0.9279 B( 16-C , 17-C ) :   1.3587 B( 16-C , 46-C ) :   1.0998 
B( 17-C , 18-C ) :   1.4629 B( 17-C , 84-H ) :   0.9139 B( 18-C , 85-H ) :   0.9260 
B( 19-C , 20-N ) :   1.3061 B( 19-C , 24-C ) :   1.3268 B( 20-N , 21-C ) :   1.4897 
B( 21-C , 22-C ) :   1.1995 B( 21-C , 41-Cl) :   1.0848 B( 22-C , 23-C ) :   1.2793 
B( 22-C , 25-C ) :   1.1875 B( 23-C , 24-C ) :   1.4277 B( 23-C , 38-Cl) :   1.0899 
B( 24-C , 86-H ) :   0.9160 B( 25-C , 26-C ) :   1.1226 B( 25-C , 27-C ) :   1.1225 
B( 25-C , 52-C ) :   0.1363 B( 26-C , 33-C ) :   1.3085 B( 26-C , 37-C ) :   1.3081 
B( 27-C , 28-C ) :   1.3088 B( 27-C , 32-C ) :   1.3080 B( 28-C , 29-C ) :   1.4178 
B( 28-C , 40-Cl) :   1.0803 B( 29-C , 30-C ) :   1.3902 B( 29-C , 87-H ) :   0.9239 
B( 30-C , 31-C ) :   1.3903 B( 30-C , 44-Cl) :   1.0604 B( 31-C , 32-C ) :   1.4178 
B( 31-C , 88-H ) :   0.9240 B( 32-C , 39-Cl) :   1.0786 B( 33-C , 34-C ) :   1.4185 
B( 33-C , 42-Cl) :   1.0801 B( 34-C , 35-C ) :   1.3898 B( 34-C , 89-H ) :   0.9239 
B( 35-C , 36-C ) :   1.3903 B( 35-C , 45-Cl) :   1.0606 B( 36-C , 37-C ) :   1.4186 
B( 36-C , 90-H ) :   0.9238 B( 37-C , 43-Cl) :   1.0772 B( 46-C , 47-N ) :   1.3064 
B( 46-C , 51-C ) :   1.3266 B( 47-N , 48-C ) :   1.4895 B( 48-C , 49-C ) :   1.1994 
B( 48-C , 68-Cl) :   1.0854 B( 49-C , 50-C ) :   1.2797 B( 49-C , 52-C ) :   1.1875 
B( 50-C , 51-C ) :   1.4278 B( 50-C , 65-Cl) :   1.0886 B( 51-C , 91-H ) :   0.9162 
B( 52-C , 53-C ) :   1.1227 B( 52-C , 54-C ) :   1.1225 B( 53-C , 60-C ) :   1.3084 
B( 53-C , 64-C ) :   1.3084 B( 54-C , 55-C ) :   1.3091 B( 54-C , 59-C ) :   1.3081 
B( 55-C , 56-C ) :   1.4178 B( 55-C , 67-Cl) :   1.0797 B( 56-C , 57-C ) :   1.3903 
B( 56-C , 92-H ) :   0.9240 B( 57-C , 58-C ) :   1.3905 B( 57-C , 71-Cl) :   1.0600 
B( 58-C , 59-C ) :   1.4177 B( 58-C , 93-H ) :   0.9240 B( 59-C , 66-Cl) :   1.0786 
B( 60-C , 61-C ) :   1.4184 B( 60-C , 69-Cl) :   1.0801 B( 61-C , 62-C ) :   1.3899 
B( 61-C , 94-H ) :   0.9239 B( 62-C , 63-C ) :   1.3902 B( 62-C , 72-Cl) :   1.0602 
B( 63-C , 64-C ) :   1.4188 B( 63-C , 95-H ) :   0.9239 B( 64-C , 70-Cl) :   1.0760 
B( 73-C , 96-H ) :   0.9538 B( 73-C , 97-H ) :   0.9397 B( 73-C , 98-H ) :   0.9529 



--------------------------
UHF CORRESPONDING ORBITALS
--------------------------
Transforming orbitals                         ... VA transformation done
VB transformation done
T transformation done
R transformation done
done
Choosing virtual orbitals in the orth. comp.  ... done
                ***UHF Corresponding Orbitals were saved in TPA-Me.uco***


Now the overlap between the corresponding orbitals will be printed
Since there are an equal number of alpha and beta orbitals each orbital in the
alpha set is matched by an orbital in the beta set. If all overlaps are close to
one you have a normal UHF solution with some spin polarization
If you have a broken symmetry solution there will be overlaps that are
significantly smaller than one. These orbitals are the non-orthogonal magnetic
orbitals of the broken symmetry UHF solution.

----------------------
 Orbital    Overlap(*)
----------------------
   0:      1.00000
   1:      1.00000
   2:      1.00000
   3:      1.00000
   4:      1.00000
   5:      1.00000
   6:      1.00000
   7:      1.00000
   8:      1.00000
   9:      1.00000
  10:      1.00000
  11:      1.00000
  12:      1.00000
  13:      1.00000
  14:      1.00000
  15:      1.00000
  16:      1.00000
  17:      1.00000
  18:      1.00000
  19:      1.00000
  20:      1.00000
  21:      1.00000
  22:      1.00000
  23:      1.00000
  24:      1.00000
  25:      1.00000
  26:      1.00000
  27:      1.00000
  28:      1.00000
  29:      1.00000
  30:      1.00000
  31:      1.00000
  32:      1.00000
  33:      1.00000
  34:      1.00000
  35:      1.00000
  36:      1.00000
  37:      1.00000
  38:      1.00000
  39:      1.00000
  40:      1.00000
  41:      1.00000
  42:      1.00000
  43:      1.00000
  44:      1.00000
  45:      1.00000
  46:      1.00000
  47:      1.00000
  48:      1.00000
  49:      1.00000
  50:      1.00000
  51:      1.00000
  52:      1.00000
  53:      1.00000
  54:      1.00000
  55:      1.00000
  56:      1.00000
  57:      1.00000
  58:      1.00000
  59:      1.00000
  60:      1.00000
  61:      1.00000
  62:      1.00000
  63:      1.00000
  64:      1.00000
  65:      1.00000
  66:      1.00000
  67:      1.00000
  68:      1.00000
  69:      1.00000
  70:      1.00000
  71:      1.00000
  72:      1.00000
  73:      1.00000
  74:      1.00000
  75:      1.00000
  76:      1.00000
  77:      1.00000
  78:      1.00000
  79:      1.00000
  80:      1.00000
  81:      1.00000
  82:      1.00000
  83:      1.00000
  84:      1.00000
  85:      1.00000
  86:      1.00000
  87:      1.00000
  88:      1.00000
  89:      1.00000
  90:      1.00000
  91:      1.00000
  92:      1.00000
  93:      1.00000
  94:      1.00000
  95:      1.00000
  96:      1.00000
  97:      1.00000
  98:      1.00000
  99:      1.00000
 100:      1.00000
 101:      1.00000
 102:      1.00000
 103:      1.00000
 104:      1.00000
 105:      1.00000
 106:      1.00000
 107:      1.00000
 108:      1.00000
 109:      1.00000
 110:      1.00000
 111:      1.00000
 112:      1.00000
 113:      1.00000
 114:      1.00000
 115:      1.00000
 116:      1.00000
 117:      1.00000
 118:      1.00000
 119:      1.00000
 120:      1.00000
 121:      1.00000
 122:      1.00000
 123:      1.00000
 124:      1.00000
 125:      1.00000
 126:      1.00000
 127:      1.00000
 128:      1.00000
 129:      1.00000
 130:      1.00000
 131:      1.00000
 132:      1.00000
 133:      1.00000
 134:      1.00000
 135:      1.00000
 136:      1.00000
 137:      1.00000
 138:      1.00000
 139:      1.00000
 140:      1.00000
 141:      1.00000
 142:      1.00000
 143:      1.00000
 144:      1.00000
 145:      1.00000
 146:      1.00000
 147:      1.00000
 148:      1.00000
 149:      1.00000
 150:      1.00000
 151:      1.00000
 152:      1.00000
 153:      1.00000
 154:      1.00000
 155:      1.00000
 156:      1.00000
 157:      1.00000
 158:      1.00000
 159:      1.00000
 160:      1.00000
 161:      1.00000
 162:      1.00000
 163:      1.00000
 164:      1.00000
 165:      1.00000
 166:      1.00000
 167:      1.00000
 168:      1.00000
 169:      1.00000
 170:      1.00000
 171:      1.00000
 172:      1.00000
 173:      1.00000
 174:      1.00000
 175:      1.00000
 176:      1.00000
 177:      1.00000
 178:      1.00000
 179:      1.00000
 180:      1.00000
 181:      1.00000
 182:      1.00000
 183:      1.00000
 184:      1.00000
 185:      1.00000
 186:      1.00000
 187:      1.00000
 188:      1.00000
 189:      1.00000
 190:      1.00000
 191:      1.00000
 192:      1.00000
 193:      1.00000
 194:      1.00000
 195:      1.00000
 196:      1.00000
 197:      1.00000
 198:      1.00000
 199:      1.00000
 200:      1.00000
 201:      1.00000
 202:      1.00000
 203:      1.00000
 204:      1.00000
 205:      1.00000
 206:      1.00000
 207:      1.00000
 208:      1.00000
 209:      1.00000
 210:      1.00000
 211:      1.00000
 212:      1.00000
 213:      1.00000
 214:      1.00000
 215:      1.00000
 216:      1.00000
 217:      1.00000
 218:      1.00000
 219:      1.00000
 220:      1.00000
 221:      1.00000
 222:      1.00000
 223:      1.00000
 224:      1.00000
 225:      1.00000
 226:      1.00000
 227:      1.00000
 228:      1.00000
 229:      1.00000
 230:      1.00000
 231:      1.00000
 232:      1.00000
 233:      1.00000
 234:      1.00000
 235:      1.00000
 236:      1.00000
 237:      1.00000
 238:      1.00000
 239:      1.00000
 240:      1.00000
 241:      1.00000
 242:      1.00000
 243:      1.00000
 244:      1.00000
 245:      1.00000
 246:      1.00000
 247:      1.00000
 248:      1.00000
 249:      1.00000
 250:      1.00000
 251:      1.00000
 252:      1.00000
 253:      1.00000
 254:      1.00000
 255:      1.00000
 256:      1.00000
 257:      1.00000
 258:      1.00000
 259:      1.00000
 260:      1.00000
 261:      1.00000
 262:      1.00000
 263:      1.00000
 264:      1.00000
 265:      1.00000
 266:      1.00000
 267:      1.00000
 268:      1.00000
 269:      1.00000
 270:      1.00000
 271:      1.00000
 272:      1.00000
 273:      1.00000
 274:      1.00000
 275:      1.00000
 276:      1.00000
 277:      1.00000
 278:      1.00000
 279:      1.00000
 280:      1.00000
 281:      1.00000
 282:      1.00000
 283:      1.00000
 284:      1.00000
 285:      1.00000
 286:      1.00000
 287:      1.00000
 288:      1.00000
 289:      1.00000
 290:      1.00000
 291:      1.00000
 292:      1.00000
 293:      1.00000
 294:      1.00000
 295:      1.00000
 296:      1.00000
 297:      1.00000
 298:      1.00000
 299:      1.00000
 300:      1.00000
 301:      1.00000
 302:      1.00000
 303:      1.00000
 304:      1.00000
 305:      1.00000
 306:      1.00000
 307:      1.00000
 308:      1.00000
 309:      1.00000
 310:      1.00000
 311:      1.00000
 312:      1.00000
 313:      1.00000
 314:      1.00000
 315:      1.00000
 316:      1.00000
 317:      1.00000
 318:      1.00000
 319:      1.00000
 320:      1.00000
 321:      1.00000
 322:      1.00000
 323:      1.00000
(*)  the overlap is weighted by the product of occupation numbers
     NOTE: the whole analysis is not valid for fractional occupations

------------------------------------------
BROKEN SYMMETRY MAGNETIC COUPLING ANALYSIS
------------------------------------------

S(High-Spin)      =   0.0    
<S**2>(High-Spin) =   0.0000    
<S**2>(BrokenSym) =   0.0000    
E(High-Spin)      = -9632.952942 Eh
E(BrokenSym)      = -9632.952949 Eh
E(High-Spin)-E(BrokenSym)= 0.0002 eV      1.571 cm**-1 (ANTIFERROMAGNETIC coupling)

          ---------------------------------------------------------
          | Spin-Hamiltonian Analysis based on H(HDvV)= -2J*SA*SB |
    -------                                                       -----------
    | J(1) =       -inf cm**-1    (from -(E[HS]-E[BS])/Smax**2)             |
    | J(2) =       -inf cm**-1    (from -(E[HS]-E[BS])/(Smax*(Smax+1))      |
    | J(3) = -468502277995.94 cm**-1    (from -(E[HS]-E[BS])/(<S**2>HS-<S**2>BS)) |
    -------------------------------------------------------------------------

  J(1): (a) A.P. Ginsberg J. Am. Chem. Soc. 102 (1980), 111
        (b) L. Noodleman J. Chem. Phys. 74 (1981), 5737
        (c) L. Noodleman E.R. Davidson Chem. Phys. 109 (1986), 131
  J(2)  (d) A. Bencini D. Gatteschi J. Am. Chem. Soc. 108 (1980), 5763
  J(3)  (e) K. Yamaguchi Y. Takahara T. Fueno in: V.H. Smith (Ed.)
            Applied Quantum Chemistry. Reidel, Dordrecht (1986), pp 155
        (f) T.Soda et al. Chem. Phys. Lett., 319, (2000), 223


----------------
TOTAL SCF ENERGY
----------------

Total Energy       :      -9632.95294881446534 Eh         -262125.97596 eV

Components:
Nuclear Repulsion  :      14908.30358951169001 Eh          405675.56482 eV
Electronic Energy  :     -24541.25646669137132 Eh         -667801.53883 eV
One Electron Energy:     -42987.81966731433204 Eh        -1169758.04250 eV
Two Electron Energy:      18446.56320062296072 Eh          501956.50366 eV

Virial components:
Potential Energy   :     -19241.05019238177920 Eh         -523575.59380 eV
Kinetic Energy     :       9608.09724356731385 Eh          261449.61784 eV
Virial Ratio       :          2.00258695396363

DFT components:
N(Alpha)           :      323.999920327103 electrons
N(Beta)            :      323.999920327103 electrons
N(Total)           :      647.999840654205 electrons
E(X)               :     -563.590522687495 Eh       
E(C)               :      -23.522111097743 Eh       
E(XC)              :     -587.112633785238 Eh       

---------------
SCF CONVERGENCE
---------------

  Last Energy change         ...   -6.9485e-10  Tolerance :   1.0000e-08
  Last MAX-Density change    ...    5.4496e-06  Tolerance :   1.0000e-07
  Last RMS-Density change    ...    4.3036e-07  Tolerance :   5.0000e-09
  Last DIIS Error            ...    2.7212e-06  Tolerance :   5.0000e-07
  Last Orbital Gradient      ...    1.9682e-06  Tolerance :   1.0000e-05
  Last Orbital Rotation      ...    6.2306e-06  Tolerance :   1.0000e-05


----------------------
UHF SPIN CONTAMINATION
----------------------

Warning: in a DFT calculation there is little theoretical justification to 
         calculate <S**2> as in Hartree-Fock theory. We will do it anyways
         but you should keep in mind that the values have only limited relevance

Expectation value of <S**2>     :     0.000000
Ideal value S*(S+1) for S=0.0   :     0.000000
Deviation                       :     0.000000

----------------
ORBITAL ENERGIES
----------------
                 SPIN UP ORBITALS
  NO   OCC          E(Eh)            E(eV) 
   0   1.0000    -101.719573     -2767.9303 
   1   1.0000    -101.719512     -2767.9286 
   2   1.0000    -101.719050     -2767.9161 
   3   1.0000    -101.718620     -2767.9044 
   4   1.0000    -101.718617     -2767.9043 
   5   1.0000    -101.718525     -2767.9018 
   6   1.0000    -101.715338     -2767.8151 
   7   1.0000    -101.715224     -2767.8119 
   8   1.0000    -101.715200     -2767.8113 
   9   1.0000    -101.715141     -2767.8097 
  10   1.0000    -101.715064     -2767.8076 
  11   1.0000    -101.714824     -2767.8011 
  12   1.0000    -101.714232     -2767.7850 
  13   1.0000    -101.714069     -2767.7805 
  14   1.0000    -101.704295     -2767.5146 
  15   1.0000    -101.704179     -2767.5114 
  16   1.0000     -14.467005      -393.6672 
  17   1.0000     -14.417225      -392.3126 
  18   1.0000     -14.417176      -392.3113 
  19   1.0000     -10.347540      -281.5709 
  20   1.0000     -10.347483      -281.5693 
  21   1.0000     -10.329234      -281.0727 
  22   1.0000     -10.329114      -281.0695 
  23   1.0000     -10.325218      -280.9635 
  24   1.0000     -10.325078      -280.9597 
  25   1.0000     -10.325028      -280.9583 
  26   1.0000     -10.324956      -280.9563 
  27   1.0000     -10.324388      -280.9409 
  28   1.0000     -10.324323      -280.9391 
  29   1.0000     -10.324080      -280.9325 
  30   1.0000     -10.323875      -280.9269 
  31   1.0000     -10.323456      -280.9155 
  32   1.0000     -10.323393      -280.9138 
  33   1.0000     -10.322605      -280.8923 
  34   1.0000     -10.322450      -280.8881 
  35   1.0000     -10.305358      -280.4230 
  36   1.0000     -10.305231      -280.4196 
  37   1.0000     -10.305071      -280.4152 
  38   1.0000     -10.304729      -280.4059 
  39   1.0000     -10.296665      -280.1865 
  40   1.0000     -10.290948      -280.0309 
  41   1.0000     -10.290928      -280.0304 
  42   1.0000     -10.290587      -280.0211 
  43   1.0000     -10.290468      -280.0179 
  44   1.0000     -10.289892      -280.0022 
  45   1.0000     -10.289717      -279.9974 
  46   1.0000     -10.289425      -279.9895 
  47   1.0000     -10.288885      -279.9748 
  48   1.0000     -10.269652      -279.4514 
  49   1.0000     -10.269605      -279.4502 
  50   1.0000     -10.269511      -279.4476 
  51   1.0000     -10.269488      -279.4470 
  52   1.0000     -10.268682      -279.4250 
  53   1.0000     -10.268657      -279.4244 
  54   1.0000     -10.268572      -279.4221 
  55   1.0000     -10.268438      -279.4184 
  56   1.0000     -10.266252      -279.3589 
  57   1.0000     -10.265923      -279.3500 
  58   1.0000     -10.265147      -279.3288 
  59   1.0000     -10.264644      -279.3152 
  60   1.0000     -10.264128      -279.3011 
  61   1.0000     -10.261630      -279.2332 
  62   1.0000     -10.260946      -279.2145 
  63   1.0000     -10.257397      -279.1180 
  64   1.0000     -10.257328      -279.1161 
  65   1.0000     -10.256686      -279.0986 
  66   1.0000     -10.256655      -279.0978 
  67   1.0000     -10.255153      -279.0569 
  68   1.0000     -10.254151      -279.0296 
  69   1.0000     -10.253315      -279.0069 
  70   1.0000     -10.253281      -279.0060 
  71   1.0000     -10.253205      -279.0039 
  72   1.0000     -10.252921      -278.9962 
  73   1.0000     -10.242062      -278.7007 
  74   1.0000      -9.549154      -259.8457 
  75   1.0000      -9.549095      -259.8441 
  76   1.0000      -9.548204      -259.8198 
  77   1.0000      -9.548114      -259.8174 
  78   1.0000      -9.548079      -259.8164 
  79   1.0000      -9.547653      -259.8048 
  80   1.0000      -9.544351      -259.7150 
  81   1.0000      -9.544272      -259.7128 
  82   1.0000      -9.544220      -259.7114 
  83   1.0000      -9.544181      -259.7104 
  84   1.0000      -9.544099      -259.7081 
  85   1.0000      -9.543858      -259.7016 
  86   1.0000      -9.543290      -259.6861 
  87   1.0000      -9.543107      -259.6812 
  88   1.0000      -9.534065      -259.4351 
  89   1.0000      -9.533947      -259.4319 
  90   1.0000      -7.284419      -198.2191 
  91   1.0000      -7.284351      -198.2173 
  92   1.0000      -7.283461      -198.1930 
  93   1.0000      -7.283401      -198.1914 
  94   1.0000      -7.283381      -198.1909 
  95   1.0000      -7.282982      -198.1800 
  96   1.0000      -7.279713      -198.0911 
  97   1.0000      -7.279627      -198.0887 
  98   1.0000      -7.279575      -198.0873 
  99   1.0000      -7.279547      -198.0865 
 100   1.0000      -7.279445      -198.0838 
 101   1.0000      -7.279211      -198.0774 
 102   1.0000      -7.278649      -198.0621 
 103   1.0000      -7.278473      -198.0573 
 104   1.0000      -7.275000      -197.9628 
 105   1.0000      -7.274948      -197.9614 
 106   1.0000      -7.274626      -197.9526 
 107   1.0000      -7.274570      -197.9511 
 108   1.0000      -7.274056      -197.9371 
 109   1.0000      -7.273996      -197.9355 
 110   1.0000      -7.273956      -197.9344 
 111   1.0000      -7.273677      -197.9268 
 112   1.0000      -7.273584      -197.9243 
 113   1.0000      -7.273568      -197.9238 
 114   1.0000      -7.273528      -197.9227 
 115   1.0000      -7.273096      -197.9110 
 116   1.0000      -7.270200      -197.8322 
 117   1.0000      -7.270118      -197.8300 
 118   1.0000      -7.270070      -197.8287 
 119   1.0000      -7.270022      -197.8274 
 120   1.0000      -7.269949      -197.8254 
 121   1.0000      -7.269835      -197.8223 
 122   1.0000      -7.269755      -197.8201 
 123   1.0000      -7.269706      -197.8188 
 124   1.0000      -7.269701      -197.8186 
 125   1.0000      -7.269657      -197.8174 
 126   1.0000      -7.269602      -197.8159 
 127   1.0000      -7.269360      -197.8093 
 128   1.0000      -7.269273      -197.8070 
 129   1.0000      -7.269157      -197.8038 
 130   1.0000      -7.269135      -197.8032 
 131   1.0000      -7.268949      -197.7982 
 132   1.0000      -7.268770      -197.7933 
 133   1.0000      -7.268590      -197.7884 
 134   1.0000      -7.260045      -197.5559 
 135   1.0000      -7.259923      -197.5526 
 136   1.0000      -7.259385      -197.5379 
 137   1.0000      -7.259270      -197.5348 
 138   1.0000      -1.023667       -27.8554 
 139   1.0000      -1.013170       -27.5697 
 140   1.0000      -1.013094       -27.5677 
 141   1.0000      -0.961249       -26.1569 
 142   1.0000      -0.961167       -26.1547 
 143   1.0000      -0.952017       -25.9057 
 144   1.0000      -0.951952       -25.9039 
 145   1.0000      -0.924330       -25.1523 
 146   1.0000      -0.924146       -25.1473 
 147   1.0000      -0.914138       -24.8749 
 148   1.0000      -0.913987       -24.8709 
 149   1.0000      -0.910431       -24.7741 
 150   1.0000      -0.909653       -24.7529 
 151   1.0000      -0.909625       -24.7522 
 152   1.0000      -0.908609       -24.7245 
 153   1.0000      -0.907704       -24.6999 
 154   1.0000      -0.907193       -24.6860 
 155   1.0000      -0.907051       -24.6821 
 156   1.0000      -0.906830       -24.6761 
 157   1.0000      -0.896435       -24.3932 
 158   1.0000      -0.885751       -24.1025 
 159   1.0000      -0.878222       -23.8976 
 160   1.0000      -0.848948       -23.1010 
 161   1.0000      -0.848880       -23.0992 
 162   1.0000      -0.843101       -22.9419 
 163   1.0000      -0.843077       -22.9413 
 164   1.0000      -0.838800       -22.8249 
 165   1.0000      -0.838775       -22.8242 
 166   1.0000      -0.823045       -22.3962 
 167   1.0000      -0.822046       -22.3690 
 168   1.0000      -0.811753       -22.0889 
 169   1.0000      -0.810450       -22.0535 
 170   1.0000      -0.798016       -21.7151 
 171   1.0000      -0.791682       -21.5428 
 172   1.0000      -0.790589       -21.5130 
 173   1.0000      -0.788509       -21.4564 
 174   1.0000      -0.777900       -21.1677 
 175   1.0000      -0.777696       -21.1622 
 176   1.0000      -0.776397       -21.1268 
 177   1.0000      -0.773394       -21.0451 
 178   1.0000      -0.773303       -21.0426 
 179   1.0000      -0.772569       -21.0227 
 180   1.0000      -0.772396       -21.0180 
 181   1.0000      -0.762105       -20.7379 
 182   1.0000      -0.726510       -19.7693 
 183   1.0000      -0.718061       -19.5394 
 184   1.0000      -0.702840       -19.1253 
 185   1.0000      -0.681419       -18.5423 
 186   1.0000      -0.672000       -18.2860 
 187   1.0000      -0.664658       -18.0863 
 188   1.0000      -0.658354       -17.9147 
 189   1.0000      -0.650543       -17.7022 
 190   1.0000      -0.645154       -17.5555 
 191   1.0000      -0.643955       -17.5229 
 192   1.0000      -0.641368       -17.4525 
 193   1.0000      -0.640912       -17.4401 
 194   1.0000      -0.638492       -17.3742 
 195   1.0000      -0.637310       -17.3421 
 196   1.0000      -0.636438       -17.3184 
 197   1.0000      -0.633845       -17.2478 
 198   1.0000      -0.626915       -17.0592 
 199   1.0000      -0.624403       -16.9909 
 200   1.0000      -0.612827       -16.6759 
 201   1.0000      -0.611456       -16.6386 
 202   1.0000      -0.603899       -16.4329 
 203   1.0000      -0.574864       -15.6429 
 204   1.0000      -0.571412       -15.5489 
 205   1.0000      -0.560861       -15.2618 
 206   1.0000      -0.559296       -15.2192 
 207   1.0000      -0.553937       -15.0734 
 208   1.0000      -0.552207       -15.0263 
 209   1.0000      -0.544983       -14.8298 
 210   1.0000      -0.543828       -14.7983 
 211   1.0000      -0.541034       -14.7223 
 212   1.0000      -0.534509       -14.5447 
 213   1.0000      -0.531581       -14.4650 
 214   1.0000      -0.531471       -14.4621 
 215   1.0000      -0.523772       -14.2526 
 216   1.0000      -0.523467       -14.2443 
 217   1.0000      -0.505777       -13.7629 
 218   1.0000      -0.503056       -13.6889 
 219   1.0000      -0.502179       -13.6650 
 220   1.0000      -0.500274       -13.6131 
 221   1.0000      -0.495273       -13.4771 
 222   1.0000      -0.495183       -13.4746 
 223   1.0000      -0.486996       -13.2518 
 224   1.0000      -0.485113       -13.2006 
 225   1.0000      -0.483487       -13.1563 
 226   1.0000      -0.481315       -13.0972 
 227   1.0000      -0.477502       -12.9935 
 228   1.0000      -0.474532       -12.9127 
 229   1.0000      -0.472957       -12.8698 
 230   1.0000      -0.471407       -12.8276 
 231   1.0000      -0.471295       -12.8246 
 232   1.0000      -0.470188       -12.7945 
 233   1.0000      -0.464572       -12.6416 
 234   1.0000      -0.464537       -12.6407 
 235   1.0000      -0.463709       -12.6182 
 236   1.0000      -0.463672       -12.6172 
 237   1.0000      -0.461743       -12.5647 
 238   1.0000      -0.457753       -12.4561 
 239   1.0000      -0.457462       -12.4482 
 240   1.0000      -0.454046       -12.3552 
 241   1.0000      -0.452489       -12.3128 
 242   1.0000      -0.451436       -12.2842 
 243   1.0000      -0.450818       -12.2674 
 244   1.0000      -0.449970       -12.2443 
 245   1.0000      -0.446457       -12.1487 
 246   1.0000      -0.445210       -12.1148 
 247   1.0000      -0.444820       -12.1042 
 248   1.0000      -0.443981       -12.0813 
 249   1.0000      -0.442850       -12.0505 
 250   1.0000      -0.432775       -11.7764 
 251   1.0000      -0.431227       -11.7343 
 252   1.0000      -0.422208       -11.4889 
 253   1.0000      -0.421138       -11.4597 
 254   1.0000      -0.419651       -11.4193 
 255   1.0000      -0.415921       -11.3178 
 256   1.0000      -0.415208       -11.2984 
 257   1.0000      -0.408607       -11.1188 
 258   1.0000      -0.407846       -11.0981 
 259   1.0000      -0.407747       -11.0954 
 260   1.0000      -0.406546       -11.0627 
 261   1.0000      -0.405882       -11.0446 
 262   1.0000      -0.403924       -10.9913 
 263   1.0000      -0.401646       -10.9294 
 264   1.0000      -0.397109       -10.8059 
 265   1.0000      -0.396630       -10.7929 
 266   1.0000      -0.395781       -10.7697 
 267   1.0000      -0.392662       -10.6849 
 268   1.0000      -0.391724       -10.6594 
 269   1.0000      -0.391647       -10.6573 
 270   1.0000      -0.388137       -10.5617 
 271   1.0000      -0.387875       -10.5546 
 272   1.0000      -0.384614       -10.4659 
 273   1.0000      -0.383567       -10.4374 
 274   1.0000      -0.382951       -10.4206 
 275   1.0000      -0.381214       -10.3734 
 276   1.0000      -0.380720       -10.3599 
 277   1.0000      -0.379576       -10.3288 
 278   1.0000      -0.370473       -10.0811 
 279   1.0000      -0.368541       -10.0285 
 280   1.0000      -0.364794        -9.9266 
 281   1.0000      -0.358846        -9.7647 
 282   1.0000      -0.346800        -9.4369 
 283   1.0000      -0.346591        -9.4312 
 284   1.0000      -0.344563        -9.3760 
 285   1.0000      -0.344539        -9.3754 
 286   1.0000      -0.343178        -9.3384 
 287   1.0000      -0.343047        -9.3348 
 288   1.0000      -0.341424        -9.2906 
 289   1.0000      -0.341180        -9.2840 
 290   1.0000      -0.340617        -9.2687 
 291   1.0000      -0.340377        -9.2621 
 292   1.0000      -0.338808        -9.2194 
 293   1.0000      -0.338412        -9.2086 
 294   1.0000      -0.332886        -9.0583 
 295   1.0000      -0.329583        -8.9684 
 296   1.0000      -0.329550        -8.9675 
 297   1.0000      -0.328609        -8.9419 
 298   1.0000      -0.328519        -8.9395 
 299   1.0000      -0.327914        -8.9230 
 300   1.0000      -0.326702        -8.8900 
 301   1.0000      -0.321389        -8.7455 
 302   1.0000      -0.321358        -8.7446 
 303   1.0000      -0.307238        -8.3604 
 304   1.0000      -0.303889        -8.2692 
 305   1.0000      -0.300149        -8.1675 
 306   1.0000      -0.295466        -8.0400 
 307   1.0000      -0.291934        -7.9439 
 308   1.0000      -0.291136        -7.9222 
 309   1.0000      -0.287837        -7.8324 
 310   1.0000      -0.283145        -7.7048 
 311   1.0000      -0.282474        -7.6865 
 312   1.0000      -0.279305        -7.6003 
 313   1.0000      -0.278675        -7.5831 
 314   1.0000      -0.271678        -7.3927 
 315   1.0000      -0.271618        -7.3911 
 316   1.0000      -0.271179        -7.3791 
 317   1.0000      -0.270352        -7.3566 
 318   1.0000      -0.266485        -7.2514 
 319   1.0000      -0.266110        -7.2412 
 320   1.0000      -0.265377        -7.2213 
 321   1.0000      -0.258464        -7.0332 
 322   1.0000      -0.215108        -5.8534 
 323   1.0000      -0.173046        -4.7088 
 324   0.0000      -0.160849        -4.3769 
 325   0.0000      -0.071503        -1.9457 
 326   0.0000      -0.060682        -1.6512 
 327   0.0000      -0.043876        -1.1939 
 328   0.0000      -0.043528        -1.1845 
 329   0.0000      -0.040569        -1.1040 
 330   0.0000      -0.039195        -1.0665 
 331   0.0000      -0.032861        -0.8942 
 332   0.0000      -0.031176        -0.8483 
 333   0.0000      -0.027983        -0.7615 
 334   0.0000      -0.027927        -0.7599 

                 SPIN DOWN ORBITALS
  NO   OCC          E(Eh)            E(eV) 
   0   1.0000    -101.719573     -2767.9303 
   1   1.0000    -101.719512     -2767.9286 
   2   1.0000    -101.719050     -2767.9161 
   3   1.0000    -101.718620     -2767.9044 
   4   1.0000    -101.718617     -2767.9043 
   5   1.0000    -101.718525     -2767.9018 
   6   1.0000    -101.715338     -2767.8151 
   7   1.0000    -101.715224     -2767.8119 
   8   1.0000    -101.715200     -2767.8113 
   9   1.0000    -101.715141     -2767.8097 
  10   1.0000    -101.715064     -2767.8076 
  11   1.0000    -101.714824     -2767.8011 
  12   1.0000    -101.714232     -2767.7850 
  13   1.0000    -101.714069     -2767.7805 
  14   1.0000    -101.704295     -2767.5146 
  15   1.0000    -101.704179     -2767.5114 
  16   1.0000     -14.467005      -393.6672 
  17   1.0000     -14.417225      -392.3126 
  18   1.0000     -14.417176      -392.3113 
  19   1.0000     -10.347540      -281.5709 
  20   1.0000     -10.347483      -281.5693 
  21   1.0000     -10.329234      -281.0727 
  22   1.0000     -10.329114      -281.0695 
  23   1.0000     -10.325218      -280.9635 
  24   1.0000     -10.325078      -280.9597 
  25   1.0000     -10.325028      -280.9583 
  26   1.0000     -10.324956      -280.9563 
  27   1.0000     -10.324388      -280.9409 
  28   1.0000     -10.324323      -280.9391 
  29   1.0000     -10.324080      -280.9325 
  30   1.0000     -10.323875      -280.9269 
  31   1.0000     -10.323456      -280.9155 
  32   1.0000     -10.323393      -280.9138 
  33   1.0000     -10.322605      -280.8923 
  34   1.0000     -10.322450      -280.8881 
  35   1.0000     -10.305358      -280.4230 
  36   1.0000     -10.305231      -280.4196 
  37   1.0000     -10.305071      -280.4152 
  38   1.0000     -10.304729      -280.4059 
  39   1.0000     -10.296665      -280.1865 
  40   1.0000     -10.290948      -280.0309 
  41   1.0000     -10.290928      -280.0304 
  42   1.0000     -10.290587      -280.0211 
  43   1.0000     -10.290468      -280.0179 
  44   1.0000     -10.289892      -280.0022 
  45   1.0000     -10.289717      -279.9974 
  46   1.0000     -10.289425      -279.9895 
  47   1.0000     -10.288885      -279.9748 
  48   1.0000     -10.269652      -279.4514 
  49   1.0000     -10.269605      -279.4502 
  50   1.0000     -10.269511      -279.4476 
  51   1.0000     -10.269488      -279.4470 
  52   1.0000     -10.268682      -279.4250 
  53   1.0000     -10.268657      -279.4244 
  54   1.0000     -10.268572      -279.4221 
  55   1.0000     -10.268438      -279.4184 
  56   1.0000     -10.266252      -279.3589 
  57   1.0000     -10.265923      -279.3500 
  58   1.0000     -10.265147      -279.3288 
  59   1.0000     -10.264644      -279.3152 
  60   1.0000     -10.264128      -279.3011 
  61   1.0000     -10.261630      -279.2332 
  62   1.0000     -10.260946      -279.2145 
  63   1.0000     -10.257397      -279.1180 
  64   1.0000     -10.257328      -279.1161 
  65   1.0000     -10.256686      -279.0986 
  66   1.0000     -10.256655      -279.0978 
  67   1.0000     -10.255153      -279.0569 
  68   1.0000     -10.254151      -279.0296 
  69   1.0000     -10.253315      -279.0069 
  70   1.0000     -10.253281      -279.0060 
  71   1.0000     -10.253205      -279.0039 
  72   1.0000     -10.252921      -278.9962 
  73   1.0000     -10.242062      -278.7007 
  74   1.0000      -9.549154      -259.8457 
  75   1.0000      -9.549095      -259.8441 
  76   1.0000      -9.548204      -259.8198 
  77   1.0000      -9.548114      -259.8174 
  78   1.0000      -9.548079      -259.8164 
  79   1.0000      -9.547653      -259.8048 
  80   1.0000      -9.544351      -259.7150 
  81   1.0000      -9.544272      -259.7128 
  82   1.0000      -9.544220      -259.7114 
  83   1.0000      -9.544181      -259.7104 
  84   1.0000      -9.544099      -259.7081 
  85   1.0000      -9.543858      -259.7016 
  86   1.0000      -9.543290      -259.6861 
  87   1.0000      -9.543107      -259.6812 
  88   1.0000      -9.534065      -259.4351 
  89   1.0000      -9.533947      -259.4319 
  90   1.0000      -7.284419      -198.2191 
  91   1.0000      -7.284351      -198.2173 
  92   1.0000      -7.283461      -198.1930 
  93   1.0000      -7.283401      -198.1914 
  94   1.0000      -7.283381      -198.1909 
  95   1.0000      -7.282982      -198.1800 
  96   1.0000      -7.279713      -198.0911 
  97   1.0000      -7.279627      -198.0887 
  98   1.0000      -7.279575      -198.0873 
  99   1.0000      -7.279547      -198.0865 
 100   1.0000      -7.279445      -198.0838 
 101   1.0000      -7.279211      -198.0774 
 102   1.0000      -7.278649      -198.0621 
 103   1.0000      -7.278473      -198.0573 
 104   1.0000      -7.275000      -197.9628 
 105   1.0000      -7.274948      -197.9614 
 106   1.0000      -7.274626      -197.9526 
 107   1.0000      -7.274570      -197.9511 
 108   1.0000      -7.274056      -197.9371 
 109   1.0000      -7.273996      -197.9355 
 110   1.0000      -7.273956      -197.9344 
 111   1.0000      -7.273677      -197.9268 
 112   1.0000      -7.273584      -197.9243 
 113   1.0000      -7.273568      -197.9238 
 114   1.0000      -7.273528      -197.9227 
 115   1.0000      -7.273096      -197.9110 
 116   1.0000      -7.270200      -197.8322 
 117   1.0000      -7.270118      -197.8300 
 118   1.0000      -7.270070      -197.8287 
 119   1.0000      -7.270022      -197.8274 
 120   1.0000      -7.269949      -197.8254 
 121   1.0000      -7.269835      -197.8223 
 122   1.0000      -7.269755      -197.8201 
 123   1.0000      -7.269706      -197.8188 
 124   1.0000      -7.269701      -197.8186 
 125   1.0000      -7.269657      -197.8174 
 126   1.0000      -7.269602      -197.8159 
 127   1.0000      -7.269360      -197.8093 
 128   1.0000      -7.269273      -197.8070 
 129   1.0000      -7.269157      -197.8038 
 130   1.0000      -7.269135      -197.8032 
 131   1.0000      -7.268949      -197.7982 
 132   1.0000      -7.268770      -197.7933 
 133   1.0000      -7.268590      -197.7884 
 134   1.0000      -7.260045      -197.5559 
 135   1.0000      -7.259923      -197.5526 
 136   1.0000      -7.259385      -197.5379 
 137   1.0000      -7.259270      -197.5348 
 138   1.0000      -1.023667       -27.8554 
 139   1.0000      -1.013170       -27.5697 
 140   1.0000      -1.013094       -27.5677 
 141   1.0000      -0.961249       -26.1569 
 142   1.0000      -0.961167       -26.1547 
 143   1.0000      -0.952017       -25.9057 
 144   1.0000      -0.951952       -25.9039 
 145   1.0000      -0.924330       -25.1523 
 146   1.0000      -0.924146       -25.1473 
 147   1.0000      -0.914138       -24.8749 
 148   1.0000      -0.913987       -24.8709 
 149   1.0000      -0.910431       -24.7741 
 150   1.0000      -0.909653       -24.7529 
 151   1.0000      -0.909625       -24.7522 
 152   1.0000      -0.908609       -24.7245 
 153   1.0000      -0.907704       -24.6999 
 154   1.0000      -0.907193       -24.6860 
 155   1.0000      -0.907051       -24.6821 
 156   1.0000      -0.906830       -24.6761 
 157   1.0000      -0.896435       -24.3932 
 158   1.0000      -0.885751       -24.1025 
 159   1.0000      -0.878222       -23.8976 
 160   1.0000      -0.848948       -23.1010 
 161   1.0000      -0.848880       -23.0992 
 162   1.0000      -0.843101       -22.9419 
 163   1.0000      -0.843077       -22.9413 
 164   1.0000      -0.838800       -22.8249 
 165   1.0000      -0.838775       -22.8242 
 166   1.0000      -0.823045       -22.3962 
 167   1.0000      -0.822046       -22.3690 
 168   1.0000      -0.811753       -22.0889 
 169   1.0000      -0.810450       -22.0535 
 170   1.0000      -0.798016       -21.7151 
 171   1.0000      -0.791682       -21.5428 
 172   1.0000      -0.790589       -21.5130 
 173   1.0000      -0.788509       -21.4564 
 174   1.0000      -0.777900       -21.1677 
 175   1.0000      -0.777696       -21.1622 
 176   1.0000      -0.776397       -21.1268 
 177   1.0000      -0.773394       -21.0451 
 178   1.0000      -0.773303       -21.0426 
 179   1.0000      -0.772569       -21.0227 
 180   1.0000      -0.772396       -21.0180 
 181   1.0000      -0.762105       -20.7379 
 182   1.0000      -0.726510       -19.7693 
 183   1.0000      -0.718061       -19.5394 
 184   1.0000      -0.702840       -19.1253 
 185   1.0000      -0.681419       -18.5423 
 186   1.0000      -0.672000       -18.2860 
 187   1.0000      -0.664658       -18.0863 
 188   1.0000      -0.658354       -17.9147 
 189   1.0000      -0.650543       -17.7022 
 190   1.0000      -0.645154       -17.5555 
 191   1.0000      -0.643955       -17.5229 
 192   1.0000      -0.641368       -17.4525 
 193   1.0000      -0.640912       -17.4401 
 194   1.0000      -0.638492       -17.3742 
 195   1.0000      -0.637310       -17.3421 
 196   1.0000      -0.636438       -17.3184 
 197   1.0000      -0.633845       -17.2478 
 198   1.0000      -0.626915       -17.0592 
 199   1.0000      -0.624403       -16.9909 
 200   1.0000      -0.612827       -16.6759 
 201   1.0000      -0.611456       -16.6386 
 202   1.0000      -0.603899       -16.4329 
 203   1.0000      -0.574864       -15.6429 
 204   1.0000      -0.571412       -15.5489 
 205   1.0000      -0.560861       -15.2618 
 206   1.0000      -0.559296       -15.2192 
 207   1.0000      -0.553937       -15.0734 
 208   1.0000      -0.552207       -15.0263 
 209   1.0000      -0.544983       -14.8298 
 210   1.0000      -0.543828       -14.7983 
 211   1.0000      -0.541034       -14.7223 
 212   1.0000      -0.534509       -14.5447 
 213   1.0000      -0.531581       -14.4650 
 214   1.0000      -0.531471       -14.4621 
 215   1.0000      -0.523772       -14.2526 
 216   1.0000      -0.523467       -14.2443 
 217   1.0000      -0.505777       -13.7629 
 218   1.0000      -0.503056       -13.6889 
 219   1.0000      -0.502179       -13.6650 
 220   1.0000      -0.500274       -13.6131 
 221   1.0000      -0.495273       -13.4771 
 222   1.0000      -0.495183       -13.4746 
 223   1.0000      -0.486996       -13.2518 
 224   1.0000      -0.485113       -13.2006 
 225   1.0000      -0.483487       -13.1563 
 226   1.0000      -0.481315       -13.0972 
 227   1.0000      -0.477502       -12.9935 
 228   1.0000      -0.474532       -12.9127 
 229   1.0000      -0.472957       -12.8698 
 230   1.0000      -0.471407       -12.8276 
 231   1.0000      -0.471295       -12.8246 
 232   1.0000      -0.470188       -12.7945 
 233   1.0000      -0.464572       -12.6416 
 234   1.0000      -0.464537       -12.6407 
 235   1.0000      -0.463709       -12.6182 
 236   1.0000      -0.463672       -12.6172 
 237   1.0000      -0.461743       -12.5647 
 238   1.0000      -0.457753       -12.4561 
 239   1.0000      -0.457462       -12.4482 
 240   1.0000      -0.454046       -12.3552 
 241   1.0000      -0.452489       -12.3128 
 242   1.0000      -0.451436       -12.2842 
 243   1.0000      -0.450818       -12.2674 
 244   1.0000      -0.449970       -12.2443 
 245   1.0000      -0.446457       -12.1487 
 246   1.0000      -0.445210       -12.1148 
 247   1.0000      -0.444820       -12.1042 
 248   1.0000      -0.443981       -12.0813 
 249   1.0000      -0.442850       -12.0505 
 250   1.0000      -0.432775       -11.7764 
 251   1.0000      -0.431227       -11.7343 
 252   1.0000      -0.422208       -11.4889 
 253   1.0000      -0.421138       -11.4597 
 254   1.0000      -0.419651       -11.4193 
 255   1.0000      -0.415921       -11.3178 
 256   1.0000      -0.415208       -11.2984 
 257   1.0000      -0.408607       -11.1188 
 258   1.0000      -0.407846       -11.0981 
 259   1.0000      -0.407747       -11.0954 
 260   1.0000      -0.406546       -11.0627 
 261   1.0000      -0.405882       -11.0446 
 262   1.0000      -0.403924       -10.9913 
 263   1.0000      -0.401646       -10.9294 
 264   1.0000      -0.397109       -10.8059 
 265   1.0000      -0.396630       -10.7929 
 266   1.0000      -0.395781       -10.7697 
 267   1.0000      -0.392662       -10.6849 
 268   1.0000      -0.391724       -10.6594 
 269   1.0000      -0.391647       -10.6573 
 270   1.0000      -0.388137       -10.5617 
 271   1.0000      -0.387875       -10.5546 
 272   1.0000      -0.384614       -10.4659 
 273   1.0000      -0.383567       -10.4374 
 274   1.0000      -0.382951       -10.4206 
 275   1.0000      -0.381214       -10.3734 
 276   1.0000      -0.380720       -10.3599 
 277   1.0000      -0.379576       -10.3288 
 278   1.0000      -0.370473       -10.0811 
 279   1.0000      -0.368541       -10.0285 
 280   1.0000      -0.364794        -9.9266 
 281   1.0000      -0.358846        -9.7647 
 282   1.0000      -0.346800        -9.4369 
 283   1.0000      -0.346591        -9.4312 
 284   1.0000      -0.344563        -9.3760 
 285   1.0000      -0.344539        -9.3754 
 286   1.0000      -0.343178        -9.3384 
 287   1.0000      -0.343047        -9.3348 
 288   1.0000      -0.341424        -9.2906 
 289   1.0000      -0.341180        -9.2840 
 290   1.0000      -0.340617        -9.2687 
 291   1.0000      -0.340377        -9.2621 
 292   1.0000      -0.338808        -9.2194 
 293   1.0000      -0.338412        -9.2086 
 294   1.0000      -0.332886        -9.0583 
 295   1.0000      -0.329583        -8.9684 
 296   1.0000      -0.329550        -8.9675 
 297   1.0000      -0.328609        -8.9419 
 298   1.0000      -0.328519        -8.9395 
 299   1.0000      -0.327914        -8.9230 
 300   1.0000      -0.326702        -8.8900 
 301   1.0000      -0.321389        -8.7455 
 302   1.0000      -0.321358        -8.7446 
 303   1.0000      -0.307238        -8.3604 
 304   1.0000      -0.303889        -8.2692 
 305   1.0000      -0.300149        -8.1675 
 306   1.0000      -0.295466        -8.0400 
 307   1.0000      -0.291934        -7.9439 
 308   1.0000      -0.291136        -7.9222 
 309   1.0000      -0.287837        -7.8324 
 310   1.0000      -0.283145        -7.7048 
 311   1.0000      -0.282474        -7.6865 
 312   1.0000      -0.279305        -7.6003 
 313   1.0000      -0.278675        -7.5831 
 314   1.0000      -0.271678        -7.3927 
 315   1.0000      -0.271618        -7.3911 
 316   1.0000      -0.271179        -7.3791 
 317   1.0000      -0.270352        -7.3566 
 318   1.0000      -0.266485        -7.2514 
 319   1.0000      -0.266110        -7.2412 
 320   1.0000      -0.265377        -7.2213 
 321   1.0000      -0.258464        -7.0332 
 322   1.0000      -0.215108        -5.8534 
 323   1.0000      -0.173046        -4.7088 
 324   0.0000      -0.160849        -4.3769 
 325   0.0000      -0.071503        -1.9457 
 326   0.0000      -0.060682        -1.6512 
 327   0.0000      -0.043876        -1.1939 
 328   0.0000      -0.043528        -1.1845 
 329   0.0000      -0.040569        -1.1040 
 330   0.0000      -0.039195        -1.0665 
 331   0.0000      -0.032861        -0.8942 
 332   0.0000      -0.031176        -0.8483 
 333   0.0000      -0.027983        -0.7615 
 334   0.0000      -0.027927        -0.7599 
*Only the first 10 virtual orbitals were printed.

                    ********************************
                    * MULLIKEN POPULATION ANALYSIS *
                    ********************************

--------------------------------------------
MULLIKEN ATOMIC CHARGES AND SPIN POPULATIONS
--------------------------------------------
   0 C :   -0.152521    0.000000
   1 C :    0.032325   -0.000000
   2 C :   -0.129413    0.000000
   3 C :   -0.143461   -0.000000
   4 C :    0.243736    0.000000
   5 C :   -0.150377   -0.000000
   6 N :   -0.620967    0.000000
   7 C :    0.242417   -0.000000
   8 C :    0.173164    0.000000
   9 C :   -0.115538   -0.000000
  10 C :   -0.159813    0.000000
  11 C :    0.083428   -0.000000
  12 C :   -0.158757   -0.000000
  13 C :   -0.114614    0.000000
  14 C :   -0.148856    0.000000
  15 C :   -0.151788   -0.000000
  16 C :    0.032071    0.000000
  17 C :   -0.130643   -0.000000
  18 C :   -0.145582    0.000000
  19 C :    0.219439    0.000000
  20 N :   -0.440385   -0.000000
  21 C :    0.043839    0.000000
  22 C :    0.090575   -0.000000
  23 C :   -0.135412    0.000000
  24 C :   -0.095539   -0.000000
  25 C :   -0.134023    0.000000
  26 C :    0.116412   -0.000000
  27 C :    0.112413   -0.000000
  28 C :   -0.158603    0.000000
  29 C :   -0.061778   -0.000000
  30 C :   -0.146508    0.000000
  31 C :   -0.061652   -0.000000
  32 C :   -0.158103    0.000000
  33 C :   -0.157893    0.000000
  34 C :   -0.061425   -0.000000
  35 C :   -0.146163    0.000000
  36 C :   -0.060839   -0.000000
  37 C :   -0.157061    0.000000
  38 Cl:    0.057816    0.000000
  39 Cl:    0.050757    0.000000
  40 Cl:    0.052282    0.000000
  41 Cl:    0.048152    0.000000
  42 Cl:    0.052357    0.000000
  43 Cl:    0.048475    0.000000
  44 Cl:    0.039222    0.000000
  45 Cl:    0.039394    0.000000
  46 C :    0.219860   -0.000000
  47 N :   -0.440751    0.000000
  48 C :    0.043443   -0.000000
  49 C :    0.090695    0.000000
  50 C :   -0.135583   -0.000000
  51 C :   -0.095530    0.000000
  52 C :   -0.134720   -0.000000
  53 C :    0.116785    0.000000
  54 C :    0.112438    0.000000
  55 C :   -0.158709   -0.000000
  56 C :   -0.061930    0.000000
  57 C :   -0.146514   -0.000000
  58 C :   -0.061819    0.000000
  59 C :   -0.158299   -0.000000
  60 C :   -0.158151   -0.000000
  61 C :   -0.061316    0.000000
  62 C :   -0.146265   -0.000000
  63 C :   -0.060834    0.000000
  64 C :   -0.156962   -0.000000
  65 Cl:    0.056241   -0.000000
  66 Cl:    0.050931   -0.000000
  67 Cl:    0.051492   -0.000000
  68 Cl:    0.048937   -0.000000
  69 Cl:    0.052520   -0.000000
  70 Cl:    0.046779   -0.000000
  71 Cl:    0.038733   -0.000000
  72 Cl:    0.039223   -0.000000
  73 C :   -0.445703   -0.000000
  74 H :    0.136530   -0.000000
  75 H :    0.170893   -0.000000
  76 H :    0.153626    0.000000
  77 H :    0.154343   -0.000000
  78 H :    0.148891   -0.000000
  79 H :    0.131752    0.000000
  80 H :    0.132221    0.000000
  81 H :    0.148933   -0.000000
  82 H :    0.152401   -0.000000
  83 H :    0.134957    0.000000
  84 H :    0.171568    0.000000
  85 H :    0.154841   -0.000000
  86 H :    0.158191    0.000000
  87 H :    0.176869    0.000000
  88 H :    0.176426    0.000000
  89 H :    0.176629    0.000000
  90 H :    0.176755    0.000000
  91 H :    0.156689   -0.000000
  92 H :    0.176576   -0.000000
  93 H :    0.176368   -0.000000
  94 H :    0.176726   -0.000000
  95 H :    0.176305   -0.000000
  96 H :    0.146674    0.000000
  97 H :    0.161740   -0.000000
  98 H :    0.147546    0.000000
Sum of atomic charges         :   -0.0000000
Sum of atomic spin populations:    0.0000000

-----------------------------------------------------
MULLIKEN REDUCED ORBITAL CHARGES AND SPIN POPULATIONS
-----------------------------------------------------
CHARGE
  0 C s       :     3.179979  s :     3.179979
      pz      :     0.985268  p :     2.937268
      px      :     0.954173
      py      :     0.997827
      dz2     :     0.003846  d :     0.035274
      dxz     :     0.007557
      dyz     :     0.005858
      dx2y2   :     0.009850
      dxy     :     0.008163

  1 C s       :     3.137206  s :     3.137206
      pz      :     0.953456  p :     2.790608
      px      :     0.920749
      py      :     0.916403
      dz2     :     0.006381  d :     0.039862
      dxz     :     0.007510
      dyz     :     0.005959
      dx2y2   :     0.009412
      dxy     :     0.010600

  2 C s       :     3.193275  s :     3.193275
      pz      :     0.975654  p :     2.901254
      px      :     0.978493
      py      :     0.947107
      dz2     :     0.004023  d :     0.034884
      dxz     :     0.007101
      dyz     :     0.005734
      dx2y2   :     0.009689
      dxy     :     0.008337

  3 C s       :     3.174585  s :     3.174585
      pz      :     0.976681  p :     2.935062
      px      :     0.939090
      py      :     1.019290
      dz2     :     0.003695  d :     0.033814
      dxz     :     0.007689
      dyz     :     0.005253
      dx2y2   :     0.009341
      dxy     :     0.007836

  4 C s       :     3.082636  s :     3.082636
      pz      :     0.920141  p :     2.615873
      px      :     0.790598
      py      :     0.905133
      dz2     :     0.008398  d :     0.057755
      dxz     :     0.014056
      dyz     :     0.008535
      dx2y2   :     0.011850
      dxy     :     0.014917

  5 C s       :     3.173303  s :     3.173303
      pz      :     0.976342  p :     2.943202
      px      :     1.007061
      py      :     0.959798
      dz2     :     0.003953  d :     0.033873
      dxz     :     0.007149
      dyz     :     0.005851
      dx2y2   :     0.009305
      dxy     :     0.007615

  6 N s       :     3.626346  s :     3.626346
      pz      :     1.650427  p :     3.952814
      px      :     1.149854
      py      :     1.152533
      dz2     :     0.003454  d :     0.041807
      dxz     :     0.006322
      dyz     :     0.005472
      dx2y2   :     0.013224
      dxy     :     0.013334

  7 C s       :     3.083055  s :     3.083055
      pz      :     0.926510  p :     2.616738
      px      :     0.771788
      py      :     0.918440
      dz2     :     0.007655  d :     0.057790
      dxz     :     0.014179
      dyz     :     0.007952
      dx2y2   :     0.013136
      dxy     :     0.014867

  8 C s       :     3.101160  s :     3.101160
      pz      :     0.925501  p :     2.669277
      px      :     1.010903
      py      :     0.732873
      dz2     :     0.010504  d :     0.056400
      dxz     :     0.005747
      dyz     :     0.017449
      dx2y2   :     0.014021
      dxy     :     0.008678

  9 C s       :     3.172832  s :     3.172832
      pz      :     0.963493  p :     2.908545
      px      :     0.994291
      py      :     0.950761
      dz2     :     0.005217  d :     0.034161
      dxz     :     0.004633
      dyz     :     0.009733
      dx2y2   :     0.006063
      dxy     :     0.008515

 10 C s       :     3.191733  s :     3.191733
      pz      :     0.991154  p :     2.933368
      px      :     0.995294
      py      :     0.946919
      dz2     :     0.005169  d :     0.034712
      dxz     :     0.004831
      dyz     :     0.009315
      dx2y2   :     0.007070
      dxy     :     0.008326

 11 C s       :     3.135509  s :     3.135509
      pz      :     0.927189  p :     2.739291
      px      :     0.930777
      py      :     0.881324
      dz2     :     0.007779  d :     0.041772
      dxz     :     0.005396
      dyz     :     0.010716
      dx2y2   :     0.008643
      dxy     :     0.009239

 12 C s       :     3.192392  s :     3.192392
      pz      :     0.995415  p :     2.931660
      px      :     0.987596
      py      :     0.948649
      dz2     :     0.005299  d :     0.034704
      dxz     :     0.004902
      dyz     :     0.009372
      dx2y2   :     0.006791
      dxy     :     0.008340

 13 C s       :     3.172569  s :     3.172569
      pz      :     0.964249  p :     2.907874
      px      :     0.995740
      py      :     0.947885
      dz2     :     0.004957  d :     0.034171
      dxz     :     0.004550
      dyz     :     0.009998
      dx2y2   :     0.006317
      dxy     :     0.008348

 14 C s       :     3.173294  s :     3.173294
      pz      :     0.982239  p :     2.941768
      px      :     0.941537
      py      :     1.017991
      dz2     :     0.003610  d :     0.033795
      dxz     :     0.007568
      dyz     :     0.004689
      dx2y2   :     0.009374
      dxy     :     0.008553

 15 C s       :     3.179851  s :     3.179851
      pz      :     0.982316  p :     2.936650
      px      :     0.985836
      py      :     0.968499
      dz2     :     0.003531  d :     0.035287
      dxz     :     0.007065
      dyz     :     0.005720
      dx2y2   :     0.009310
      dxy     :     0.009661

 16 C s       :     3.137548  s :     3.137548
      pz      :     0.962754  p :     2.790519
      px      :     0.901733
      py      :     0.926032
      dz2     :     0.005804  d :     0.039861
      dxz     :     0.007021
      dyz     :     0.006050
      dx2y2   :     0.010316
      dxy     :     0.010671

 17 C s       :     3.193231  s :     3.193231
      pz      :     0.973379  p :     2.902553
      px      :     0.920671
      py      :     1.008503
      dz2     :     0.003668  d :     0.034859
      dxz     :     0.007450
      dyz     :     0.004853
      dx2y2   :     0.009888
      dxy     :     0.009000

 18 C s       :     3.175163  s :     3.175163
      pz      :     0.978622  p :     2.936516
      px      :     1.005284
      py      :     0.952609
      dz2     :     0.003488  d :     0.033903
      dxz     :     0.006802
      dyz     :     0.005574
      dx2y2   :     0.009407
      dxy     :     0.008631

 19 C s       :     3.047960  s :     3.047960
      pz      :     0.910315  p :     2.671429
      px      :     0.856259
      py      :     0.904855
      dz2     :     0.007524  d :     0.061173
      dxz     :     0.010889
      dyz     :     0.008886
      dx2y2   :     0.017108
      dxy     :     0.016765

 20 N s       :     3.712901  s :     3.712901
      pz      :     1.210463  p :     3.687753
      px      :     1.009484
      py      :     1.467805
      dz2     :     0.005717  d :     0.039732
      dxz     :     0.008315
      dyz     :     0.006147
      dx2y2   :     0.006654
      dxy     :     0.012898

 21 C s       :     3.104361  s :     3.104361
      pz      :     0.952815  p :     2.780569
      px      :     0.869246
      py      :     0.958508
      dz2     :     0.006692  d :     0.071230
      dxz     :     0.014150
      dyz     :     0.008380
      dx2y2   :     0.019962
      dxy     :     0.022046

 22 C s       :     3.136425  s :     3.136425
      pz      :     0.951764  p :     2.731855
      px      :     0.910327
      py      :     0.869764
      dz2     :     0.004699  d :     0.041145
      dxz     :     0.007163
      dyz     :     0.005430
      dx2y2   :     0.012467
      dxy     :     0.011385

 23 C s       :     3.181838  s :     3.181838
      pz      :     0.990281  p :     2.903098
      px      :     1.051005
      py      :     0.861811
      dz2     :     0.005868  d :     0.050477
      dxz     :     0.008646
      dyz     :     0.008391
      dx2y2   :     0.014429
      dxy     :     0.013142

 24 C s       :     3.147781  s :     3.147781
      pz      :     1.009107  p :     2.914903
      px      :     0.968085
      py      :     0.937712
      dz2     :     0.003404  d :     0.032856
      dxz     :     0.005749
      dyz     :     0.005423
      dx2y2   :     0.008809
      dxy     :     0.009471

 25 C s       :     3.145314  s :     3.145314
      pz      :     0.953149  p :     2.949523
      px      :     0.974222
      py      :     1.022152
      dz2     :     0.009338  d :     0.039186
      dxz     :     0.011909
      dyz     :     0.007017
      dx2y2   :     0.005303
      dxy     :     0.005619

 26 C s       :     3.128844  s :     3.128844
      pz      :     0.874653  p :     2.713379
      px      :     0.844520
      py      :     0.994207
      dz2     :     0.010388  d :     0.041364
      dxz     :     0.010745
      dyz     :     0.007648
      dx2y2   :     0.006497
      dxy     :     0.006085

 27 C s       :     3.130197  s :     3.130197
      pz      :     0.874215  p :     2.716033
      px      :     0.976642
      py      :     0.865176
      dz2     :     0.010320  d :     0.041357
      dxz     :     0.006813
      dyz     :     0.011182
      dx2y2   :     0.006501
      dxy     :     0.006541

 28 C s       :     3.183487  s :     3.183487
      pz      :     0.915602  p :     2.925439
      px      :     1.034536
      py      :     0.975302
      dz2     :     0.011711  d :     0.049677
      dxz     :     0.007896
      dyz     :     0.014666
      dx2y2   :     0.007835
      dxy     :     0.007569

 29 C s       :     3.154679  s :     3.154679
      pz      :     0.856740  p :     2.873656
      px      :     0.990780
      py      :     1.026137
      dz2     :     0.008903  d :     0.033442
      dxz     :     0.006771
      dyz     :     0.009359
      dx2y2   :     0.004328
      dxy     :     0.004082

 30 C s       :     3.185088  s :     3.185088
      pz      :     0.902026  p :     2.910381
      px      :     1.004958
      py      :     1.003398
      dz2     :     0.012514  d :     0.051038
      dxz     :     0.009448
      dyz     :     0.014137
      dx2y2   :     0.007291
      dxy     :     0.007648

 31 C s       :     3.154346  s :     3.154346
      pz      :     0.986804  p :     2.873868
      px      :     0.971060
      py      :     0.916004
      dz2     :     0.007951  d :     0.033439
      dxz     :     0.004567
      dyz     :     0.009449
      dx2y2   :     0.006034
      dxy     :     0.005438

 32 C s       :     3.183566  s :     3.183566
      pz      :     1.036010  p :     2.924902
      px      :     1.023706
      py      :     0.865186
      dz2     :     0.011953  d :     0.049634
      dxz     :     0.007835
      dyz     :     0.013446
      dx2y2   :     0.008503
      dxy     :     0.007898

 33 C s       :     3.183165  s :     3.183165
      pz      :     0.920249  p :     2.925052
      px      :     0.996457
      py      :     1.008345
      dz2     :     0.011733  d :     0.049676
      dxz     :     0.014356
      dyz     :     0.008575
      dx2y2   :     0.007103
      dxy     :     0.007909

 34 C s       :     3.154467  s :     3.154467
      pz      :     0.853624  p :     2.873514
      px      :     1.022705
      py      :     0.997186
      dz2     :     0.008913  d :     0.033444
      dxz     :     0.009781
      dyz     :     0.006647
      dx2y2   :     0.004356
      dxy     :     0.003746

 35 C s       :     3.185091  s :     3.185091
      pz      :     0.890085  p :     2.910024
      px      :     0.984840
      py      :     1.035100
      dz2     :     0.012900  d :     0.051047
      dxz     :     0.015600
      dyz     :     0.008068
      dx2y2   :     0.007011
      dxy     :     0.007469

 36 C s       :     3.154016  s :     3.154016
      pz      :     0.979009  p :     2.873379
      px      :     0.893248
      py      :     1.001123
      dz2     :     0.008152  d :     0.033444
      dxz     :     0.009559
      dyz     :     0.004645
      dx2y2   :     0.005195
      dxy     :     0.005893

 37 C s       :     3.182960  s :     3.182960
      pz      :     1.037410  p :     2.924482
      px      :     0.872368
      py      :     1.014705
      dz2     :     0.012025  d :     0.049619
      dxz     :     0.013339
      dyz     :     0.008200
      dx2y2   :     0.007926
      dxy     :     0.008128

 38 Cls       :     5.923697  s :     5.923697
      pz      :     3.805460  p :    10.988119
      px      :     3.932483
      py      :     3.250176
      dz2     :     0.003909  d :     0.030368
      dxz     :     0.000858
      dyz     :     0.010246
      dx2y2   :     0.011649
      dxy     :     0.003706

 39 Cls       :     5.924869  s :     5.924869
      pz      :     3.926520  p :    10.993937
      px      :     3.853810
      py      :     3.213607
      dz2     :     0.005060  d :     0.030438
      dxz     :     0.000777
      dyz     :     0.004049
      dx2y2   :     0.011501
      dxy     :     0.009050

 40 Cls       :     5.924268  s :     5.924268
      pz      :     3.432385  p :    10.993056
      px      :     3.922738
      py      :     3.637933
      dz2     :     0.007412  d :     0.030394
      dxz     :     0.004246
      dyz     :     0.013667
      dx2y2   :     0.002783
      dxy     :     0.002287

 41 Cls       :     5.924659  s :     5.924659
      pz      :     3.788947  p :    10.999106
      px      :     3.527252
      py      :     3.682906
      dz2     :     0.003575  d :     0.028083
      dxz     :     0.006927
      dyz     :     0.003985
      dx2y2   :     0.003141
      dxy     :     0.010455

 42 Cls       :     5.923970  s :     5.923970
      pz      :     3.455102  p :    10.993279
      px      :     3.733706
      py      :     3.804471
      dz2     :     0.006604  d :     0.030394
      dxz     :     0.010339
      dyz     :     0.007901
      dx2y2   :     0.002294
      dxy     :     0.003256

 43 Cls       :     5.924401  s :     5.924401
      pz      :     3.933177  p :    10.996760
      px      :     3.243133
      py      :     3.820450
      dz2     :     0.005197  d :     0.030364
      dxz     :     0.003704
      dyz     :     0.000738
      dx2y2   :     0.010815
      dxy     :     0.009909

 44 Cls       :     5.922765  s :     5.922765
      pz      :     3.398127  p :    11.008095
      px      :     3.800950
      py      :     3.809018
      dz2     :     0.008014  d :     0.029918
      dxz     :     0.008798
      dyz     :     0.008537
      dx2y2   :     0.002096
      dxy     :     0.002473

 45 Cls       :     5.922679  s :     5.922679
      pz      :     3.349893  p :    11.008008
      px      :     3.734503
      py      :     3.923611
      dz2     :     0.009524  d :     0.029919
      dxz     :     0.011914
      dyz     :     0.004900
      dx2y2   :     0.001770
      dxy     :     0.001811

 46 C s       :     3.047596  s :     3.047596
      pz      :     0.915922  p :     2.671384
      px      :     0.962770
      py      :     0.792692
      dz2     :     0.006766  d :     0.061160
      dxz     :     0.009101
      dyz     :     0.010202
      dx2y2   :     0.016316
      dxy     :     0.018775

 47 N s       :     3.712919  s :     3.712919
      pz      :     1.197174  p :     3.688105
      px      :     1.358932
      py      :     1.131999
      dz2     :     0.005446  d :     0.039727
      dxz     :     0.007208
      dyz     :     0.007160
      dx2y2   :     0.011515
      dxy     :     0.008398

 48 C s       :     3.104351  s :     3.104351
      pz      :     0.957287  p :     2.780969
      px      :     0.982710
      py      :     0.840972
      dz2     :     0.006168  d :     0.071236
      dxz     :     0.012196
      dyz     :     0.009640
      dx2y2   :     0.024765
      dxy     :     0.018467

 49 C s       :     3.136528  s :     3.136528
      pz      :     0.963994  p :     2.731593
      px      :     0.884082
      py      :     0.883517
      dz2     :     0.004481  d :     0.041183
      dxz     :     0.006503
      dyz     :     0.005762
      dx2y2   :     0.014365
      dxy     :     0.010072

 50 C s       :     3.181698  s :     3.181698
      pz      :     0.997928  p :     2.903426
      px      :     0.912848
      py      :     0.992650
      dz2     :     0.005437  d :     0.050460
      dxz     :     0.009247
      dyz     :     0.007382
      dx2y2   :     0.013881
      dxy     :     0.014514

 51 C s       :     3.147511  s :     3.147511
      pz      :     1.010357  p :     2.915152
      px      :     0.884617
      py      :     1.020177
      dz2     :     0.003262  d :     0.032868
      dxz     :     0.006642
      dyz     :     0.004087
      dx2y2   :     0.009746
      dxy     :     0.009131

 52 C s       :     3.144570  s :     3.144570
      pz      :     0.956312  p :     2.950995
      px      :     0.976592
      py      :     1.018091
      dz2     :     0.008805  d :     0.039155
      dxz     :     0.011477
      dyz     :     0.007547
      dx2y2   :     0.004899
      dxy     :     0.006427

 53 C s       :     3.128876  s :     3.128876
      pz      :     0.870670  p :     2.712948
      px      :     0.988854
      py      :     0.853424
      dz2     :     0.010892  d :     0.041390
      dxz     :     0.006502
      dyz     :     0.011554
      dx2y2   :     0.006434
      dxy     :     0.006008

 54 C s       :     3.130211  s :     3.130211
      pz      :     0.869059  p :     2.715966
      px      :     0.844866
      py      :     1.002040
      dz2     :     0.010815  d :     0.041385
      dxz     :     0.010606
      dyz     :     0.007004
      dx2y2   :     0.006793
      dxy     :     0.006167

 55 C s       :     3.183443  s :     3.183443
      pz      :     0.903944  p :     2.925596
      px      :     1.004758
      py      :     1.016895
      dz2     :     0.012028  d :     0.049670
      dxz     :     0.014727
      dyz     :     0.007954
      dx2y2   :     0.006814
      dxy     :     0.008147

 56 C s       :     3.154532  s :     3.154532
      pz      :     0.854747  p :     2.873948
      px      :     1.023344
      py      :     0.995857
      dz2     :     0.008941  d :     0.033450
      dxz     :     0.009905
      dyz     :     0.006437
      dx2y2   :     0.004751
      dxy     :     0.003416

 57 C s       :     3.185003  s :     3.185003
      pz      :     0.908078  p :     2.910481
      px      :     0.967357
      py      :     1.035046
      dz2     :     0.012465  d :     0.051030
      dxz     :     0.016167
      dyz     :     0.007697
      dx2y2   :     0.006818
      dxy     :     0.007884

 58 C s       :     3.154286  s :     3.154286
      pz      :     0.994074  p :     2.874087
      px      :     0.876785
      py      :     1.003228
      dz2     :     0.008074  d :     0.033446
      dxz     :     0.009946
      dyz     :     0.003949
      dx2y2   :     0.005277
      dxy     :     0.006199

 59 C s       :     3.183570  s :     3.183570
      pz      :     1.034524  p :     2.925095
      px      :     0.863436
      py      :     1.027135
      dz2     :     0.011952  d :     0.049634
      dxz     :     0.013937
      dyz     :     0.007685
      dx2y2   :     0.008042
      dxy     :     0.008019

 60 C s       :     3.183247  s :     3.183247
      pz      :     0.910459  p :     2.925231
      px      :     1.034991
      py      :     0.979781
      dz2     :     0.012003  d :     0.049673
      dxz     :     0.007755
      dyz     :     0.015364
      dx2y2   :     0.007039
      dxy     :     0.007512

 61 C s       :     3.154483  s :     3.154483
      pz      :     0.850432  p :     2.873385
      px      :     0.995263
      py      :     1.027689
      dz2     :     0.008945  d :     0.033448
      dxz     :     0.006770
      dyz     :     0.009898
      dx2y2   :     0.004430
      dxy     :     0.003405

 62 C s       :     3.185070  s :     3.185070
      pz      :     0.893194  p :     2.910151
      px      :     1.022052
      py      :     0.994905
      dz2     :     0.012909  d :     0.051045
      dxz     :     0.008680
      dyz     :     0.015245
      dx2y2   :     0.006634
      dxy     :     0.007577

 63 C s       :     3.153954  s :     3.153954
      pz      :     0.984311  p :     2.873431
      px      :     0.985807
      py      :     0.903314
      dz2     :     0.008277  d :     0.033449
      dxz     :     0.004162
      dyz     :     0.009960
      dx2y2   :     0.005562
      dxy     :     0.005488

 64 C s       :     3.182851  s :     3.182851
      pz      :     1.037373  p :     2.924508
      px      :     1.032966
      py      :     0.854169
      dz2     :     0.012039  d :     0.049604
      dxz     :     0.007780
      dyz     :     0.014061
      dx2y2   :     0.008221
      dxy     :     0.007503

 65 Cls       :     5.923621  s :     5.923621
      pz      :     3.836657  p :    10.989793
      px      :     3.417795
      py      :     3.735341
      dz2     :     0.004017  d :     0.030345
      dxz     :     0.007510
      dyz     :     0.002537
      dx2y2   :     0.005633
      dxy     :     0.010647

 66 Cls       :     5.924901  s :     5.924901
      pz      :     3.916126  p :    10.993722
      px      :     3.206755
      py      :     3.870841
      dz2     :     0.004872  d :     0.030446
      dxz     :     0.004739
      dyz     :     0.000598
      dx2y2   :     0.011841
      dxy     :     0.008396

 67 Cls       :     5.924215  s :     5.924215
      pz      :     3.386098  p :    10.993908
      px      :     3.768441
      py      :     3.839369
      dz2     :     0.008746  d :     0.030384
      dxz     :     0.009899
      dyz     :     0.007620
      dx2y2   :     0.001714
      dxy     :     0.002406

 68 Cls       :     5.924684  s :     5.924684
      pz      :     3.816584  p :    10.998271
      px      :     3.925206
      py      :     3.256481
      dz2     :     0.003683  d :     0.028109
      dxz     :     0.000660
      dyz     :     0.009338
      dx2y2   :     0.011076
      dxy     :     0.003351

 69 Cls       :     5.923993  s :     5.923993
      pz      :     3.416151  p :    10.993084
      px      :     3.921882
      py      :     3.655051
      dz2     :     0.007575  d :     0.030403
      dxz     :     0.004613
      dyz     :     0.013493
      dx2y2   :     0.002534
      dxy     :     0.002189

 70 Cls       :     5.924207  s :     5.924207
      pz      :     3.929281  p :    10.998682
      px      :     3.891385
      py      :     3.178015
      dz2     :     0.005136  d :     0.030332
      dxz     :     0.000481
      dyz     :     0.004112
      dx2y2   :     0.012619
      dxy     :     0.007984

 71 Cls       :     5.922761  s :     5.922761
      pz      :     3.424267  p :    11.008584
      px      :     3.665611
      py      :     3.918707
      dz2     :     0.007136  d :     0.029922
      dxz     :     0.013170
      dyz     :     0.004490
      dx2y2   :     0.002574
      dxy     :     0.002551

 72 Cls       :     5.922724  s :     5.922724
      pz      :     3.363249  p :    11.008124
      px      :     3.868784
      py      :     3.776091
      dz2     :     0.008949  d :     0.029929
      dxz     :     0.006917
      dyz     :     0.010220
      dx2y2   :     0.001749
      dxy     :     0.002093

 73 C s       :     3.279721  s :     3.279721
      pz      :     1.087245  p :     3.135465
      px      :     1.087218
      py      :     0.961002
      dz2     :     0.005180  d :     0.030517
      dxz     :     0.006013
      dyz     :     0.006169
      dx2y2   :     0.007358
      dxy     :     0.005797

 74 H s       :     0.850945  s :     0.850945
      pz      :     0.004430  p :     0.012526
      px      :     0.002033
      py      :     0.006063

 75 H s       :     0.816204  s :     0.816204
      pz      :     0.003811  p :     0.012903
      px      :     0.006545
      py      :     0.002547

 76 H s       :     0.833683  s :     0.833683
      pz      :     0.004267  p :     0.012691
      px      :     0.001969
      py      :     0.006456

 77 H s       :     0.832970  s :     0.832970
      pz      :     0.004111  p :     0.012687
      px      :     0.005860
      py      :     0.002716

 78 H s       :     0.838559  s :     0.838559
      pz      :     0.004712  p :     0.012549
      px      :     0.004349
      py      :     0.003488

 79 H s       :     0.855843  s :     0.855843
      pz      :     0.005075  p :     0.012406
      px      :     0.004082
      py      :     0.003249

 80 H s       :     0.855371  s :     0.855371
      pz      :     0.004727  p :     0.012408
      px      :     0.004318
      py      :     0.003364

 81 H s       :     0.838520  s :     0.838520
      pz      :     0.005089  p :     0.012547
      px      :     0.004079
      py      :     0.003379

 82 H s       :     0.834875  s :     0.834875
      pz      :     0.003882  p :     0.012724
      px      :     0.002060
      py      :     0.006781

 83 H s       :     0.852523  s :     0.852523
      pz      :     0.004076  p :     0.012520
      px      :     0.005175
      py      :     0.003269

 84 H s       :     0.815519  s :     0.815519
      pz      :     0.003620  p :     0.012913
      px      :     0.002261
      py      :     0.007032

 85 H s       :     0.832513  s :     0.832513
      pz      :     0.003979  p :     0.012646
      px      :     0.005514
      py      :     0.003152

 86 H s       :     0.828945  s :     0.828945
      pz      :     0.003714  p :     0.012864
      px      :     0.005530
      py      :     0.003620

 87 H s       :     0.810291  s :     0.810291
      pz      :     0.001834  p :     0.012839
      px      :     0.003423
      py      :     0.007583

 88 H s       :     0.810735  s :     0.810735
      pz      :     0.006467  p :     0.012838
      px      :     0.002593
      py      :     0.003778

 89 H s       :     0.810532  s :     0.810532
      pz      :     0.001800  p :     0.012840
      px      :     0.007790
      py      :     0.003249

 90 H s       :     0.810401  s :     0.810401
      pz      :     0.006269  p :     0.012843
      px      :     0.003216
      py      :     0.003359

 91 H s       :     0.830450  s :     0.830450
      pz      :     0.003556  p :     0.012860
      px      :     0.001976
      py      :     0.007328

 92 H s       :     0.810586  s :     0.810586
      pz      :     0.001860  p :     0.012838
      px      :     0.008021
      py      :     0.002957

 93 H s       :     0.810794  s :     0.810794
      pz      :     0.006804  p :     0.012838
      px      :     0.002846
      py      :     0.003189

 94 H s       :     0.810435  s :     0.810435
      pz      :     0.001785  p :     0.012840
      px      :     0.003120
      py      :     0.007934

 95 H s       :     0.810854  s :     0.810854
      pz      :     0.006542  p :     0.012841
      px      :     0.002695
      py      :     0.003604

 96 H s       :     0.841735  s :     0.841735
      pz      :     0.003040  p :     0.011592
      px      :     0.005654
      py      :     0.002898

 97 H s       :     0.826591  s :     0.826591
      pz      :     0.004047  p :     0.011669
      px      :     0.005010
      py      :     0.002611

 98 H s       :     0.840855  s :     0.840855
      pz      :     0.006085  p :     0.011600
      px      :     0.002539
      py      :     0.002975


SPIN
  0 C s       :     0.000000  s :     0.000000
      pz      :     0.000000  p :     0.000000
      px      :     0.000000
      py      :     0.000000
      dz2     :    -0.000000  d :    -0.000000
      dxz     :    -0.000000
      dyz     :    -0.000000
      dx2y2   :    -0.000000
      dxy     :    -0.000000

  1 C s       :    -0.000000  s :    -0.000000
      pz      :    -0.000000  p :    -0.000000
      px      :    -0.000000
      py      :    -0.000000
      dz2     :     0.000000  d :     0.000000
      dxz     :     0.000000
      dyz     :     0.000000
      dx2y2   :     0.000000
      dxy     :     0.000000

  2 C s       :     0.000000  s :     0.000000
      pz      :     0.000000  p :     0.000000
      px      :     0.000000
      py      :     0.000000
      dz2     :    -0.000000  d :    -0.000000
      dxz     :    -0.000000
      dyz     :    -0.000000
      dx2y2   :    -0.000000
      dxy     :    -0.000000

  3 C s       :    -0.000000  s :    -0.000000
      pz      :    -0.000000  p :    -0.000000
      px      :    -0.000000
      py      :    -0.000000
      dz2     :     0.000000  d :     0.000000
      dxz     :     0.000000
      dyz     :     0.000000
      dx2y2   :     0.000000
      dxy     :     0.000000

  4 C s       :     0.000000  s :     0.000000
      pz      :     0.000000  p :     0.000000
      px      :     0.000000
      py      :     0.000000
      dz2     :    -0.000000  d :    -0.000000
      dxz     :    -0.000000
      dyz     :    -0.000000
      dx2y2   :    -0.000000
      dxy     :    -0.000000

  5 C s       :    -0.000000  s :    -0.000000
      pz      :    -0.000000  p :    -0.000000
      px      :    -0.000000
      py      :    -0.000000
      dz2     :     0.000000  d :     0.000000
      dxz     :     0.000000
      dyz     :     0.000000
      dx2y2   :     0.000000
      dxy     :    -0.000000

  6 N s       :    -0.000000  s :    -0.000000
      pz      :     0.000000  p :     0.000000
      px      :     0.000000
      py      :     0.000000
      dz2     :    -0.000000  d :    -0.000000
      dxz     :    -0.000000
      dyz     :     0.000000
      dx2y2   :     0.000000
      dxy     :    -0.000000

  7 C s       :    -0.000000  s :    -0.000000
      pz      :    -0.000000  p :    -0.000000
      px      :    -0.000000
      py      :    -0.000000
      dz2     :     0.000000  d :     0.000000
      dxz     :     0.000000
      dyz     :     0.000000
      dx2y2   :     0.000000
      dxy     :     0.000000

  8 C s       :    -0.000000  s :    -0.000000
      pz      :    -0.000000  p :     0.000000
      px      :    -0.000000
      py      :     0.000000
      dz2     :     0.000000  d :     0.000000
      dxz     :     0.000000
      dyz     :     0.000000
      dx2y2   :     0.000000
      dxy     :    -0.000000

  9 C s       :    -0.000000  s :    -0.000000
      pz      :     0.000000  p :     0.000000
      px      :     0.000000
      py      :    -0.000000
      dz2     :     0.000000  d :    -0.000000
      dxz     :    -0.000000
      dyz     :    -0.000000
      dx2y2   :    -0.000000
      dxy     :    -0.000000

 10 C s       :     0.000000  s :     0.000000
      pz      :     0.000000  p :     0.000000
      px      :     0.000000
      py      :    -0.000000
      dz2     :     0.000000  d :     0.000000
      dxz     :     0.000000
      dyz     :     0.000000
      dx2y2   :     0.000000
      dxy     :    -0.000000

 11 C s       :    -0.000000  s :    -0.000000
      pz      :     0.000000  p :     0.000000
      px      :     0.000000
      py      :     0.000000
      dz2     :    -0.000000  d :    -0.000000
      dxz     :    -0.000000
      dyz     :    -0.000000
      dx2y2   :    -0.000000
      dxy     :    -0.000000

 12 C s       :    -0.000000  s :    -0.000000
      pz      :     0.000000  p :    -0.000000
      px      :    -0.000000
      py      :    -0.000000
      dz2     :    -0.000000  d :     0.000000
      dxz     :     0.000000
      dyz     :    -0.000000
      dx2y2   :    -0.000000
      dxy     :     0.000000

 13 C s       :     0.000000  s :     0.000000
      pz      :    -0.000000  p :     0.000000
      px      :     0.000000
      py      :     0.000000
      dz2     :    -0.000000  d :     0.000000
      dxz     :     0.000000
      dyz     :    -0.000000
      dx2y2   :     0.000000
      dxy     :    -0.000000

 14 C s       :    -0.000000  s :    -0.000000
      pz      :     0.000000  p :     0.000000
      px      :     0.000000
      py      :     0.000000
      dz2     :    -0.000000  d :    -0.000000
      dxz     :    -0.000000
      dyz     :    -0.000000
      dx2y2   :    -0.000000
      dxy     :    -0.000000

 15 C s       :    -0.000000  s :    -0.000000
      pz      :    -0.000000  p :    -0.000000
      px      :    -0.000000
      py      :    -0.000000
      dz2     :     0.000000  d :     0.000000
      dxz     :     0.000000
      dyz     :     0.000000
      dx2y2   :     0.000000
      dxy     :     0.000000

 16 C s       :     0.000000  s :     0.000000
      pz      :     0.000000  p :     0.000000
      px      :     0.000000
      py      :     0.000000
      dz2     :    -0.000000  d :    -0.000000
      dxz     :    -0.000000
      dyz     :    -0.000000
      dx2y2   :    -0.000000
      dxy     :    -0.000000

 17 C s       :    -0.000000  s :    -0.000000
      pz      :    -0.000000  p :    -0.000000
      px      :    -0.000000
      py      :    -0.000000
      dz2     :     0.000000  d :     0.000000
      dxz     :     0.000000
      dyz     :     0.000000
      dx2y2   :     0.000000
      dxy     :     0.000000

 18 C s       :     0.000000  s :     0.000000
      pz      :     0.000000  p :     0.000000
      px      :     0.000000
      py      :     0.000000
      dz2     :    -0.000000  d :    -0.000000
      dxz     :    -0.000000
      dyz     :    -0.000000
      dx2y2   :    -0.000000
      dxy     :    -0.000000

 19 C s       :     0.000000  s :     0.000000
      pz      :     0.000000  p :     0.000000
      px      :     0.000000
      py      :     0.000000
      dz2     :    -0.000000  d :    -0.000000
      dxz     :    -0.000000
      dyz     :    -0.000000
      dx2y2   :     0.000000
      dxy     :    -0.000000

 20 N s       :    -0.000000  s :    -0.000000
      pz      :    -0.000000  p :    -0.000000
      px      :    -0.000000
      py      :    -0.000000
      dz2     :     0.000000  d :     0.000000
      dxz     :     0.000000
      dyz     :    -0.000000
      dx2y2   :     0.000000
      dxy     :     0.000000

 21 C s       :     0.000000  s :     0.000000
      pz      :     0.000000  p :     0.000000
      px      :     0.000000
      py      :     0.000000
      dz2     :     0.000000  d :    -0.000000
      dxz     :    -0.000000
      dyz     :    -0.000000
      dx2y2   :    -0.000000
      dxy     :    -0.000000

 22 C s       :    -0.000000  s :    -0.000000
      pz      :    -0.000000  p :    -0.000000
      px      :    -0.000000
      py      :    -0.000000
      dz2     :     0.000000  d :     0.000000
      dxz     :     0.000000
      dyz     :     0.000000
      dx2y2   :     0.000000
      dxy     :     0.000000

 23 C s       :     0.000000  s :     0.000000
      pz      :     0.000000  p :     0.000000
      px      :     0.000000
      py      :     0.000000
      dz2     :    -0.000000  d :    -0.000000
      dxz     :    -0.000000
      dyz     :    -0.000000
      dx2y2   :    -0.000000
      dxy     :    -0.000000

 24 C s       :    -0.000000  s :    -0.000000
      pz      :    -0.000000  p :    -0.000000
      px      :    -0.000000
      py      :    -0.000000
      dz2     :     0.000000  d :     0.000000
      dxz     :     0.000000
      dyz     :     0.000000
      dx2y2   :     0.000000
      dxy     :     0.000000

 25 C s       :     0.000000  s :     0.000000
      pz      :     0.000000  p :     0.000000
      px      :     0.000000
      py      :     0.000000
      dz2     :    -0.000000  d :    -0.000000
      dxz     :    -0.000000
      dyz     :    -0.000000
      dx2y2   :    -0.000000
      dxy     :    -0.000000

 26 C s       :    -0.000000  s :    -0.000000
      pz      :    -0.000000  p :    -0.000000
      px      :    -0.000000
      py      :    -0.000000
      dz2     :     0.000000  d :     0.000000
      dxz     :     0.000000
      dyz     :     0.000000
      dx2y2   :     0.000000
      dxy     :     0.000000

 27 C s       :    -0.000000  s :    -0.000000
      pz      :    -0.000000  p :    -0.000000
      px      :    -0.000000
      py      :    -0.000000
      dz2     :     0.000000  d :     0.000000
      dxz     :     0.000000
      dyz     :     0.000000
      dx2y2   :     0.000000
      dxy     :     0.000000

 28 C s       :     0.000000  s :     0.000000
      pz      :     0.000000  p :     0.000000
      px      :     0.000000
      py      :     0.000000
      dz2     :    -0.000000  d :    -0.000000
      dxz     :     0.000000
      dyz     :    -0.000000
      dx2y2   :    -0.000000
      dxy     :    -0.000000

 29 C s       :    -0.000000  s :    -0.000000
      pz      :    -0.000000  p :    -0.000000
      px      :    -0.000000
      py      :    -0.000000
      dz2     :     0.000000  d :     0.000000
      dxz     :     0.000000
      dyz     :     0.000000
      dx2y2   :     0.000000
      dxy     :     0.000000

 30 C s       :     0.000000  s :     0.000000
      pz      :     0.000000  p :     0.000000
      px      :     0.000000
      py      :     0.000000
      dz2     :    -0.000000  d :    -0.000000
      dxz     :    -0.000000
      dyz     :    -0.000000
      dx2y2   :    -0.000000
      dxy     :    -0.000000

 31 C s       :     0.000000  s :     0.000000
      pz      :    -0.000000  p :    -0.000000
      px      :    -0.000000
      py      :    -0.000000
      dz2     :     0.000000  d :     0.000000
      dxz     :     0.000000
      dyz     :     0.000000
      dx2y2   :     0.000000
      dxy     :     0.000000

 32 C s       :     0.000000  s :     0.000000
      pz      :     0.000000  p :     0.000000
      px      :     0.000000
      py      :     0.000000
      dz2     :    -0.000000  d :    -0.000000
      dxz     :    -0.000000
      dyz     :    -0.000000
      dx2y2   :    -0.000000
      dxy     :    -0.000000

 33 C s       :     0.000000  s :     0.000000
      pz      :     0.000000  p :     0.000000
      px      :     0.000000
      py      :     0.000000
      dz2     :    -0.000000  d :    -0.000000
      dxz     :    -0.000000
      dyz     :    -0.000000
      dx2y2   :    -0.000000
      dxy     :    -0.000000

 34 C s       :    -0.000000  s :    -0.000000
      pz      :    -0.000000  p :    -0.000000
      px      :    -0.000000
      py      :    -0.000000
      dz2     :     0.000000  d :     0.000000
      dxz     :     0.000000
      dyz     :     0.000000
      dx2y2   :     0.000000
      dxy     :     0.000000

 35 C s       :     0.000000  s :     0.000000
      pz      :     0.000000  p :     0.000000
      px      :     0.000000
      py      :     0.000000
      dz2     :    -0.000000  d :    -0.000000
      dxz     :    -0.000000
      dyz     :    -0.000000
      dx2y2   :    -0.000000
      dxy     :    -0.000000

 36 C s       :    -0.000000  s :    -0.000000
      pz      :    -0.000000  p :    -0.000000
      px      :    -0.000000
      py      :    -0.000000
      dz2     :     0.000000  d :     0.000000
      dxz     :     0.000000
      dyz     :     0.000000
      dx2y2   :     0.000000
      dxy     :     0.000000

 37 C s       :     0.000000  s :     0.000000
      pz      :     0.000000  p :     0.000000
      px      :     0.000000
      py      :     0.000000
      dz2     :    -0.000000  d :    -0.000000
      dxz     :     0.000000
      dyz     :    -0.000000
      dx2y2   :    -0.000000
      dxy     :     0.000000

 38 Cls       :     0.000000  s :     0.000000
      pz      :     0.000000  p :     0.000000
      px      :     0.000000
      py      :    -0.000000
      dz2     :     0.000000  d :     0.000000
      dxz     :     0.000000
      dyz     :     0.000000
      dx2y2   :     0.000000
      dxy     :     0.000000

 39 Cls       :     0.000000  s :     0.000000
      pz      :    -0.000000  p :     0.000000
      px      :     0.000000
      py      :    -0.000000
      dz2     :     0.000000  d :     0.000000
      dxz     :    -0.000000
      dyz     :     0.000000
      dx2y2   :     0.000000
      dxy     :     0.000000

 40 Cls       :    -0.000000  s :    -0.000000
      pz      :     0.000000  p :     0.000000
      px      :     0.000000
      py      :     0.000000
      dz2     :     0.000000  d :     0.000000
      dxz     :     0.000000
      dyz     :     0.000000
      dx2y2   :    -0.000000
      dxy     :     0.000000

 41 Cls       :    -0.000000  s :    -0.000000
      pz      :     0.000000  p :     0.000000
      px      :    -0.000000
      py      :     0.000000
      dz2     :     0.000000  d :     0.000000
      dxz     :     0.000000
      dyz     :     0.000000
      dx2y2   :    -0.000000
      dxy     :    -0.000000

 42 Cls       :     0.000000  s :     0.000000
      pz      :     0.000000  p :     0.000000
      px      :     0.000000
      py      :     0.000000
      dz2     :     0.000000  d :     0.000000
      dxz     :     0.000000
      dyz     :     0.000000
      dx2y2   :     0.000000
      dxy     :     0.000000

 43 Cls       :    -0.000000  s :    -0.000000
      pz      :    -0.000000  p :     0.000000
      px      :     0.000000
      py      :     0.000000
      dz2     :     0.000000  d :     0.000000
      dxz     :     0.000000
      dyz     :     0.000000
      dx2y2   :     0.000000
      dxy     :     0.000000

 44 Cls       :    -0.000000  s :    -0.000000
      pz      :    -0.000000  p :     0.000000
      px      :     0.000000
      py      :     0.000000
      dz2     :     0.000000  d :     0.000000
      dxz     :     0.000000
      dyz     :     0.000000
      dx2y2   :     0.000000
      dxy     :     0.000000

 45 Cls       :     0.000000  s :     0.000000
      pz      :    -0.000000  p :     0.000000
      px      :     0.000000
      py      :     0.000000
      dz2     :     0.000000  d :     0.000000
      dxz     :     0.000000
      dyz     :     0.000000
      dx2y2   :     0.000000
      dxy     :     0.000000

 46 C s       :    -0.000000  s :    -0.000000
      pz      :    -0.000000  p :    -0.000000
      px      :    -0.000000
      py      :    -0.000000
      dz2     :     0.000000  d :     0.000000
      dxz     :     0.000000
      dyz     :     0.000000
      dx2y2   :     0.000000
      dxy     :    -0.000000

 47 N s       :     0.000000  s :     0.000000
      pz      :     0.000000  p :     0.000000
      px      :    -0.000000
      py      :     0.000000
      dz2     :    -0.000000  d :    -0.000000
      dxz     :    -0.000000
      dyz     :    -0.000000
      dx2y2   :    -0.000000
      dxy     :    -0.000000

 48 C s       :    -0.000000  s :    -0.000000
      pz      :    -0.000000  p :    -0.000000
      px      :    -0.000000
      py      :    -0.000000
      dz2     :     0.000000  d :     0.000000
      dxz     :     0.000000
      dyz     :     0.000000
      dx2y2   :     0.000000
      dxy     :     0.000000

 49 C s       :     0.000000  s :     0.000000
      pz      :     0.000000  p :     0.000000
      px      :     0.000000
      py      :     0.000000
      dz2     :    -0.000000  d :    -0.000000
      dxz     :    -0.000000
      dyz     :    -0.000000
      dx2y2   :    -0.000000
      dxy     :    -0.000000

 50 C s       :    -0.000000  s :    -0.000000
      pz      :    -0.000000  p :    -0.000000
      px      :    -0.000000
      py      :    -0.000000
      dz2     :     0.000000  d :     0.000000
      dxz     :     0.000000
      dyz     :     0.000000
      dx2y2   :     0.000000
      dxy     :     0.000000

 51 C s       :     0.000000  s :     0.000000
      pz      :     0.000000  p :     0.000000
      px      :     0.000000
      py      :     0.000000
      dz2     :    -0.000000  d :    -0.000000
      dxz     :    -0.000000
      dyz     :    -0.000000
      dx2y2   :    -0.000000
      dxy     :    -0.000000

 52 C s       :    -0.000000  s :    -0.000000
      pz      :    -0.000000  p :    -0.000000
      px      :    -0.000000
      py      :    -0.000000
      dz2     :     0.000000  d :     0.000000
      dxz     :     0.000000
      dyz     :     0.000000
      dx2y2   :     0.000000
      dxy     :     0.000000

 53 C s       :     0.000000  s :     0.000000
      pz      :     0.000000  p :     0.000000
      px      :     0.000000
      py      :     0.000000
      dz2     :    -0.000000  d :    -0.000000
      dxz     :    -0.000000
      dyz     :    -0.000000
      dx2y2   :    -0.000000
      dxy     :    -0.000000

 54 C s       :     0.000000  s :     0.000000
      pz      :     0.000000  p :     0.000000
      px      :     0.000000
      py      :     0.000000
      dz2     :    -0.000000  d :    -0.000000
      dxz     :    -0.000000
      dyz     :    -0.000000
      dx2y2   :    -0.000000
      dxy     :    -0.000000

 55 C s       :    -0.000000  s :    -0.000000
      pz      :    -0.000000  p :    -0.000000
      px      :    -0.000000
      py      :    -0.000000
      dz2     :     0.000000  d :     0.000000
      dxz     :     0.000000
      dyz     :     0.000000
      dx2y2   :     0.000000
      dxy     :     0.000000

 56 C s       :    -0.000000  s :    -0.000000
      pz      :     0.000000  p :     0.000000
      px      :    -0.000000
      py      :     0.000000
      dz2     :    -0.000000  d :    -0.000000
      dxz     :    -0.000000
      dyz     :    -0.000000
      dx2y2   :    -0.000000
      dxy     :    -0.000000

 57 C s       :    -0.000000  s :    -0.000000
      pz      :    -0.000000  p :    -0.000000
      px      :    -0.000000
      py      :    -0.000000
      dz2     :     0.000000  d :     0.000000
      dxz     :    -0.000000
      dyz     :     0.000000
      dx2y2   :     0.000000
      dxy     :     0.000000

 58 C s       :     0.000000  s :     0.000000
      pz      :     0.000000  p :     0.000000
      px      :     0.000000
      py      :     0.000000
      dz2     :    -0.000000  d :    -0.000000
      dxz     :    -0.000000
      dyz     :    -0.000000
      dx2y2   :    -0.000000
      dxy     :    -0.000000

 59 C s       :    -0.000000  s :    -0.000000
      pz      :    -0.000000  p :    -0.000000
      px      :    -0.000000
      py      :    -0.000000
      dz2     :     0.000000  d :     0.000000
      dxz     :    -0.000000
      dyz     :     0.000000
      dx2y2   :     0.000000
      dxy     :    -0.000000

 60 C s       :    -0.000000  s :    -0.000000
      pz      :    -0.000000  p :    -0.000000
      px      :    -0.000000
      py      :    -0.000000
      dz2     :     0.000000  d :     0.000000
      dxz     :     0.000000
      dyz     :     0.000000
      dx2y2   :     0.000000
      dxy     :     0.000000

 61 C s       :     0.000000  s :     0.000000
      pz      :     0.000000  p :     0.000000
      px      :     0.000000
      py      :     0.000000
      dz2     :    -0.000000  d :    -0.000000
      dxz     :    -0.000000
      dyz     :    -0.000000
      dx2y2   :    -0.000000
      dxy     :    -0.000000

 62 C s       :    -0.000000  s :    -0.000000
      pz      :    -0.000000  p :    -0.000000
      px      :    -0.000000
      py      :    -0.000000
      dz2     :     0.000000  d :     0.000000
      dxz     :     0.000000
      dyz     :     0.000000
      dx2y2   :     0.000000
      dxy     :     0.000000

 63 C s       :     0.000000  s :     0.000000
      pz      :     0.000000  p :     0.000000
      px      :     0.000000
      py      :     0.000000
      dz2     :    -0.000000  d :    -0.000000
      dxz     :    -0.000000
      dyz     :    -0.000000
      dx2y2   :    -0.000000
      dxy     :    -0.000000

 64 C s       :    -0.000000  s :    -0.000000
      pz      :    -0.000000  p :    -0.000000
      px      :    -0.000000
      py      :    -0.000000
      dz2     :     0.000000  d :     0.000000
      dxz     :     0.000000
      dyz     :     0.000000
      dx2y2   :     0.000000
      dxy     :     0.000000

 65 Cls       :     0.000000  s :     0.000000
      pz      :    -0.000000  p :    -0.000000
      px      :     0.000000
      py      :    -0.000000
      dz2     :    -0.000000  d :    -0.000000
      dxz     :    -0.000000
      dyz     :    -0.000000
      dx2y2   :     0.000000
      dxy     :     0.000000

 66 Cls       :    -0.000000  s :    -0.000000
      pz      :     0.000000  p :    -0.000000
      px      :    -0.000000
      py      :    -0.000000
      dz2     :    -0.000000  d :    -0.000000
      dxz     :    -0.000000
      dyz     :     0.000000
      dx2y2   :    -0.000000
      dxy     :    -0.000000

 67 Cls       :     0.000000  s :     0.000000
      pz      :    -0.000000  p :    -0.000000
      px      :     0.000000
      py      :    -0.000000
      dz2     :    -0.000000  d :    -0.000000
      dxz     :    -0.000000
      dyz     :    -0.000000
      dx2y2   :    -0.000000
      dxy     :    -0.000000

 68 Cls       :     0.000000  s :     0.000000
      pz      :    -0.000000  p :    -0.000000
      px      :    -0.000000
      py      :     0.000000
      dz2     :    -0.000000  d :    -0.000000
      dxz     :    -0.000000
      dyz     :    -0.000000
      dx2y2   :     0.000000
      dxy     :    -0.000000

 69 Cls       :     0.000000  s :     0.000000
      pz      :    -0.000000  p :    -0.000000
      px      :    -0.000000
      py      :    -0.000000
      dz2     :    -0.000000  d :    -0.000000
      dxz     :    -0.000000
      dyz     :    -0.000000
      dx2y2   :    -0.000000
      dxy     :    -0.000000

 70 Cls       :    -0.000000  s :    -0.000000
      pz      :     0.000000  p :    -0.000000
      px      :    -0.000000
      py      :     0.000000
      dz2     :    -0.000000  d :    -0.000000
      dxz     :     0.000000
      dyz     :    -0.000000
      dx2y2   :    -0.000000
      dxy     :    -0.000000

 71 Cls       :    -0.000000  s :    -0.000000
      pz      :     0.000000  p :    -0.000000
      px      :     0.000000
      py      :    -0.000000
      dz2     :    -0.000000  d :    -0.000000
      dxz     :    -0.000000
      dyz     :    -0.000000
      dx2y2   :    -0.000000
      dxy     :    -0.000000

 72 Cls       :    -0.000000  s :    -0.000000
      pz      :     0.000000  p :    -0.000000
      px      :    -0.000000
      py      :    -0.000000
      dz2     :    -0.000000  d :    -0.000000
      dxz     :    -0.000000
      dyz     :    -0.000000
      dx2y2   :    -0.000000
      dxy     :    -0.000000

 73 C s       :    -0.000000  s :    -0.000000
      pz      :    -0.000000  p :    -0.000000
      px      :    -0.000000
      py      :     0.000000
      dz2     :     0.000000  d :     0.000000
      dxz     :     0.000000
      dyz     :     0.000000
      dx2y2   :     0.000000
      dxy     :     0.000000

 74 H s       :    -0.000000  s :    -0.000000
      pz      :     0.000000  p :     0.000000
      px      :     0.000000
      py      :     0.000000

 75 H s       :    -0.000000  s :    -0.000000
      pz      :     0.000000  p :     0.000000
      px      :     0.000000
      py      :     0.000000

 76 H s       :     0.000000  s :     0.000000
      pz      :    -0.000000  p :    -0.000000
      px      :    -0.000000
      py      :    -0.000000

 77 H s       :    -0.000000  s :    -0.000000
      pz      :    -0.000000  p :    -0.000000
      px      :    -0.000000
      py      :    -0.000000

 78 H s       :    -0.000000  s :    -0.000000
      pz      :    -0.000000  p :     0.000000
      px      :     0.000000
      py      :    -0.000000

 79 H s       :     0.000000  s :     0.000000
      pz      :     0.000000  p :     0.000000
      px      :    -0.000000
      py      :     0.000000

 80 H s       :     0.000000  s :     0.000000
      pz      :     0.000000  p :     0.000000
      px      :    -0.000000
      py      :     0.000000

 81 H s       :    -0.000000  s :    -0.000000
      pz      :    -0.000000  p :    -0.000000
      px      :    -0.000000
      py      :    -0.000000

 82 H s       :    -0.000000  s :    -0.000000
      pz      :     0.000000  p :     0.000000
      px      :    -0.000000
      py      :     0.000000

 83 H s       :     0.000000  s :     0.000000
      pz      :    -0.000000  p :    -0.000000
      px      :    -0.000000
      py      :    -0.000000

 84 H s       :     0.000000  s :     0.000000
      pz      :    -0.000000  p :    -0.000000
      px      :     0.000000
      py      :    -0.000000

 85 H s       :    -0.000000  s :    -0.000000
      pz      :     0.000000  p :     0.000000
      px      :     0.000000
      py      :     0.000000

 86 H s       :     0.000000  s :     0.000000
      pz      :    -0.000000  p :    -0.000000
      px      :    -0.000000
      py      :     0.000000

 87 H s       :     0.000000  s :     0.000000
      pz      :    -0.000000  p :    -0.000000
      px      :    -0.000000
      py      :    -0.000000

 88 H s       :     0.000000  s :     0.000000
      pz      :     0.000000  p :    -0.000000
      px      :    -0.000000
      py      :    -0.000000

 89 H s       :     0.000000  s :     0.000000
      pz      :    -0.000000  p :    -0.000000
      px      :    -0.000000
      py      :    -0.000000

 90 H s       :     0.000000  s :     0.000000
      pz      :    -0.000000  p :    -0.000000
      px      :    -0.000000
      py      :    -0.000000

 91 H s       :    -0.000000  s :    -0.000000
      pz      :     0.000000  p :     0.000000
      px      :    -0.000000
      py      :     0.000000

 92 H s       :    -0.000000  s :    -0.000000
      pz      :    -0.000000  p :     0.000000
      px      :     0.000000
      py      :     0.000000

 93 H s       :    -0.000000  s :    -0.000000
      pz      :    -0.000000  p :     0.000000
      px      :     0.000000
      py      :     0.000000

 94 H s       :    -0.000000  s :    -0.000000
      pz      :    -0.000000  p :     0.000000
      px      :     0.000000
      py      :     0.000000

 95 H s       :    -0.000000  s :    -0.000000
      pz      :    -0.000000  p :     0.000000
      px      :     0.000000
      py      :    -0.000000

 96 H s       :     0.000000  s :     0.000000
      pz      :     0.000000  p :     0.000000
      px      :     0.000000
      py      :     0.000000

 97 H s       :    -0.000000  s :    -0.000000
      pz      :     0.000000  p :     0.000000
      px      :     0.000000
      py      :    -0.000000

 98 H s       :     0.000000  s :     0.000000
      pz      :     0.000000  p :     0.000000
      px      :     0.000000
      py      :     0.000000



                     *******************************
                     * LOEWDIN POPULATION ANALYSIS *
                     *******************************

-------------------------------------------
LOEWDIN ATOMIC CHARGES AND SPIN POPULATIONS
-------------------------------------------
   0 C :   -0.062978    0.000000
   1 C :   -0.035231   -0.000000
   2 C :   -0.043433    0.000000
   3 C :   -0.088861   -0.000000
   4 C :    0.035045    0.000000
   5 C :   -0.091130   -0.000000
   6 N :   -0.013145    0.000000
   7 C :    0.034455   -0.000000
   8 C :    0.011555    0.000000
   9 C :   -0.080033    0.000000
  10 C :   -0.079133   -0.000000
  11 C :   -0.014255   -0.000000
  12 C :   -0.078419   -0.000000
  13 C :   -0.079692    0.000000
  14 C :   -0.089634    0.000000
  15 C :   -0.062320   -0.000000
  16 C :   -0.035324    0.000000
  17 C :   -0.045093   -0.000000
  18 C :   -0.091098    0.000000
  19 C :    0.041160    0.000000
  20 N :   -0.115864   -0.000000
  21 C :   -0.021719    0.000000
  22 C :   -0.056471   -0.000000
  23 C :   -0.057005    0.000000
  24 C :   -0.098515   -0.000000
  25 C :   -0.024095    0.000000
  26 C :   -0.041343   -0.000000
  27 C :   -0.042358   -0.000000
  28 C :   -0.066695    0.000000
  29 C :   -0.091063   -0.000000
  30 C :   -0.080880    0.000000
  31 C :   -0.091299   -0.000000
  32 C :   -0.067054    0.000000
  33 C :   -0.065863    0.000000
  34 C :   -0.090701   -0.000000
  35 C :   -0.080330    0.000000
  36 C :   -0.090693   -0.000000
  37 C :   -0.066123    0.000000
  38 Cl:    0.075495    0.000000
  39 Cl:    0.069343    0.000000
  40 Cl:    0.070955    0.000000
  41 Cl:    0.059084    0.000000
  42 Cl:    0.071223    0.000000
  43 Cl:    0.067589    0.000000
  44 Cl:    0.065443    0.000000
  45 Cl:    0.065686    0.000000
  46 C :    0.040509   -0.000000
  47 N :   -0.115974    0.000000
  48 C :   -0.021916   -0.000000
  49 C :   -0.056225    0.000000
  50 C :   -0.057360   -0.000000
  51 C :   -0.098954    0.000000
  52 C :   -0.025722   -0.000000
  53 C :   -0.041131    0.000000
  54 C :   -0.042209    0.000000
  55 C :   -0.066899   -0.000000
  56 C :   -0.091252    0.000000
  57 C :   -0.081182   -0.000000
  58 C :   -0.091345    0.000000
  59 C :   -0.067226   -0.000000
  60 C :   -0.066020   -0.000000
  61 C :   -0.090560    0.000000
  62 C :   -0.080578   -0.000000
  63 C :   -0.090814    0.000000
  64 C :   -0.066286   -0.000000
  65 Cl:    0.074269   -0.000000
  66 Cl:    0.069483   -0.000000
  67 Cl:    0.070363   -0.000000
  68 Cl:    0.059731   -0.000000
  69 Cl:    0.071392   -0.000000
  70 Cl:    0.066351   -0.000000
  71 Cl:    0.065084   -0.000000
  72 Cl:    0.065597   -0.000000
  73 C :   -0.216784   -0.000000
  74 H :    0.086824   -0.000000
  75 H :    0.102311   -0.000000
  76 H :    0.095325   -0.000000
  77 H :    0.094958   -0.000000
  78 H :    0.093603   -0.000000
  79 H :    0.085892   -0.000000
  80 H :    0.086153    0.000000
  81 H :    0.093653   -0.000000
  82 H :    0.094777    0.000000
  83 H :    0.086172    0.000000
  84 H :    0.102563    0.000000
  85 H :    0.095130    0.000000
  86 H :    0.098419    0.000000
  87 H :    0.108993    0.000000
  88 H :    0.108825    0.000000
  89 H :    0.108924    0.000000
  90 H :    0.109023    0.000000
  91 H :    0.097766   -0.000000
  92 H :    0.108835   -0.000000
  93 H :    0.108789   -0.000000
  94 H :    0.108961   -0.000000
  95 H :    0.108838   -0.000000
  96 H :    0.087943    0.000000
  97 H :    0.095312   -0.000000
  98 H :    0.088488    0.000000

----------------------------------------------------
LOEWDIN REDUCED ORBITAL CHARGES AND SPIN POPULATIONS
----------------------------------------------------
CHARGE
  0 C s       :     2.894569  s :     2.894569
      pz      :     1.004562  p :     3.084264
      px      :     1.046540
      py      :     1.033163
      dz2     :     0.008696  d :     0.084144
      dxz     :     0.018190
      dyz     :     0.011191
      dx2y2   :     0.024491
      dxy     :     0.021576

  1 C s       :     2.868019  s :     2.868019
      pz      :     1.017602  p :     3.066511
      px      :     1.021597
      py      :     1.027311
      dz2     :     0.013987  d :     0.100701
      dxz     :     0.018474
      dyz     :     0.015181
      dx2y2   :     0.025096
      dxy     :     0.027964

  2 C s       :     2.897188  s :     2.897188
      pz      :     0.988459  p :     3.062899
      px      :     1.058213
      py      :     1.016228
      dz2     :     0.008928  d :     0.083346
      dxz     :     0.015078
      dyz     :     0.013347
      dx2y2   :     0.024122
      dxy     :     0.021870

  3 C s       :     2.896902  s :     2.896902
      pz      :     1.009599  p :     3.110130
      px      :     1.048909
      py      :     1.051621
      dz2     :     0.008174  d :     0.081830
      dxz     :     0.019007
      dyz     :     0.010036
      dx2y2   :     0.023767
      dxy     :     0.020846

  4 C s       :     2.854502  s :     2.854502
      pz      :     1.002768  p :     2.971309
      px      :     0.957336
      py      :     1.011205
      dz2     :     0.018256  d :     0.139144
      dxz     :     0.032375
      dyz     :     0.020101
      dx2y2   :     0.030542
      dxy     :     0.037870

  5 C s       :     2.896706  s :     2.896706
      pz      :     1.012582  p :     3.112632
      px      :     1.062805
      py      :     1.037245
      dz2     :     0.008784  d :     0.081793
      dxz     :     0.015383
      dyz     :     0.013962
      dx2y2   :     0.023404
      dxy     :     0.020260

  6 N s       :     3.056602  s :     3.056602
      pz      :     1.558818  p :     3.855809
      px      :     1.146927
      py      :     1.150063
      dz2     :     0.005294  d :     0.100734
      dxz     :     0.013207
      dyz     :     0.011395
      dx2y2   :     0.035501
      dxy     :     0.035338

  7 C s       :     2.854517  s :     2.854517
      pz      :     0.994562  p :     2.971786
      px      :     0.947976
      py      :     1.029248
      dz2     :     0.016365  d :     0.139242
      dxz     :     0.032165
      dyz     :     0.018468
      dx2y2   :     0.033980
      dxy     :     0.038264

  8 C s       :     2.854097  s :     2.854097
      pz      :     1.046090  p :     2.997726
      px      :     1.039653
      py      :     0.911983
      dz2     :     0.024058  d :     0.136622
      dxz     :     0.014115
      dyz     :     0.042138
      dx2y2   :     0.034588
      dxy     :     0.021723

  9 C s       :     2.900224  s :     2.900224
      pz      :     1.017668  p :     3.097371
      px      :     1.017051
      py      :     1.062651
      dz2     :     0.012262  d :     0.082438
      dxz     :     0.009510
      dyz     :     0.024121
      dx2y2   :     0.016464
      dxy     :     0.020081

 10 C s       :     2.898245  s :     2.898245
      pz      :     1.026643  p :     3.097362
      px      :     1.015684
      py      :     1.055035
      dz2     :     0.012088  d :     0.083527
      dxz     :     0.009633
      dyz     :     0.022907
      dx2y2   :     0.018687
      dxy     :     0.020211

 11 C s       :     2.877216  s :     2.877216
      pz      :     1.016812  p :     3.035812
      px      :     0.991226
      py      :     1.027774
      dz2     :     0.018491  d :     0.101226
      dxz     :     0.014234
      dyz     :     0.025773
      dx2y2   :     0.021499
      dxy     :     0.021230

 12 C s       :     2.898217  s :     2.898217
      pz      :     1.029645  p :     3.096697
      px      :     1.011734
      py      :     1.055318
      dz2     :     0.012384  d :     0.083505
      dxz     :     0.009791
      dyz     :     0.023474
      dx2y2   :     0.018048
      dxy     :     0.019808

 13 C s       :     2.900201  s :     2.900201
      pz      :     1.019639  p :     3.097037
      px      :     1.016010
      py      :     1.061388
      dz2     :     0.011607  d :     0.082454
      dxz     :     0.009307
      dyz     :     0.024471
      dx2y2   :     0.017034
      dxy     :     0.020036

 14 C s       :     2.896514  s :     2.896514
      pz      :     1.007723  p :     3.111453
      px      :     1.049708
      py      :     1.054021
      dz2     :     0.007796  d :     0.081667
      dxz     :     0.018279
      dyz     :     0.008918
      dx2y2   :     0.023957
      dxy     :     0.022717

 15 C s       :     2.894554  s :     2.894554
      pz      :     0.996583  p :     3.083600
      px      :     1.055945
      py      :     1.031072
      dz2     :     0.007752  d :     0.084166
      dxz     :     0.015018
      dyz     :     0.012641
      dx2y2   :     0.023998
      dxy     :     0.024758

 16 C s       :     2.868047  s :     2.868047
      pz      :     1.011739  p :     3.066576
      px      :     1.021251
      py      :     1.033586
      dz2     :     0.012439  d :     0.100700
      dxz     :     0.016790
      dyz     :     0.015044
      dx2y2   :     0.027760
      dxy     :     0.028668

 17 C s       :     2.897206  s :     2.897206
      pz      :     0.980852  p :     3.064571
      px      :     1.040401
      py      :     1.043318
      dz2     :     0.007955  d :     0.083316
      dxz     :     0.017730
      dyz     :     0.009048
      dx2y2   :     0.024996
      dxy     :     0.023588

 18 C s       :     2.897287  s :     2.897287
      pz      :     1.007520  p :     3.111812
      px      :     1.066441
      py      :     1.037851
      dz2     :     0.007523  d :     0.082000
      dxz     :     0.014545
      dyz     :     0.012828
      dx2y2   :     0.024441
      dxy     :     0.022662

 19 C s       :     2.855748  s :     2.855748
      pz      :     0.945752  p :     2.955777
      px      :     0.991002
      py      :     1.019023
      dz2     :     0.015641  d :     0.147314
      dxz     :     0.024221
      dyz     :     0.021667
      dx2y2   :     0.043633
      dxy     :     0.042151

 20 N s       :     3.216864  s :     3.216864
      pz      :     1.208163  p :     3.811082
      px      :     1.120479
      py      :     1.482440
      dz2     :     0.011005  d :     0.087918
      dxz     :     0.020008
      dyz     :     0.008602
      dx2y2   :     0.017948
      dxy     :     0.030355

 21 C s       :     2.898865  s :     2.898865
      pz      :     0.960972  p :     2.960024
      px      :     0.985478
      py      :     1.013574
      dz2     :     0.013851  d :     0.162830
      dxz     :     0.029118
      dyz     :     0.018053
      dx2y2   :     0.047465
      dxy     :     0.054342

 22 C s       :     2.876024  s :     2.876024
      pz      :     1.012045  p :     3.075205
      px      :     1.029434
      py      :     1.033726
      dz2     :     0.010247  d :     0.105243
      dxz     :     0.016922
      dyz     :     0.013685
      dx2y2   :     0.033268
      dxy     :     0.031120

 23 C s       :     2.915598  s :     2.915598
      pz      :     0.992185  p :     3.024892
      px      :     1.089541
      py      :     0.943166
      dz2     :     0.011409  d :     0.116514
      dxz     :     0.019656
      dyz     :     0.017233
      dx2y2   :     0.035450
      dxy     :     0.032767

 24 C s       :     2.898482  s :     2.898482
      pz      :     1.017378  p :     3.117782
      px      :     1.053282
      py      :     1.047122
      dz2     :     0.007313  d :     0.082251
      dxz     :     0.012316
      dyz     :     0.012697
      dx2y2   :     0.023666
      dxy     :     0.026258

 25 C s       :     2.877576  s :     2.877576
      pz      :     1.014409  p :     3.054574
      px      :     1.018133
      py      :     1.022032
      dz2     :     0.023120  d :     0.091946
      dxz     :     0.029247
      dyz     :     0.015510
      dx2y2   :     0.011447
      dxy     :     0.012622

 26 C s       :     2.871322  s :     2.871322
      pz      :     1.024776  p :     3.065518
      px      :     1.028764
      py      :     1.011977
      dz2     :     0.027493  d :     0.104504
      dxz     :     0.030520
      dyz     :     0.016988
      dx2y2   :     0.015498
      dxy     :     0.014004

 27 C s       :     2.871665  s :     2.871665
      pz      :     1.024766  p :     3.066229
      px      :     1.006490
      py      :     1.034972
      dz2     :     0.027170  d :     0.104465
      dxz     :     0.015427
      dyz     :     0.031236
      dx2y2   :     0.015603
      dxy     :     0.015029

 28 C s       :     2.914847  s :     2.914847
      pz      :     0.978885  p :     3.037371
      px      :     1.031369
      py      :     1.027117
      dz2     :     0.028095  d :     0.114478
      dxz     :     0.016476
      dyz     :     0.036138
      dx2y2   :     0.016869
      dxy     :     0.016900

 29 C s       :     2.898468  s :     2.898468
      pz      :     1.036192  p :     3.109112
      px      :     1.010022
      py      :     1.062899
      dz2     :     0.025675  d :     0.083483
      dxz     :     0.016584
      dyz     :     0.025419
      dx2y2   :     0.008096
      dxy     :     0.007709

 30 C s       :     2.909830  s :     2.909830
      pz      :     0.983061  p :     3.053014
      px      :     1.004359
      py      :     1.065594
      dz2     :     0.030291  d :     0.118036
      dxz     :     0.019649
      dyz     :     0.035238
      dx2y2   :     0.016025
      dxy     :     0.016833

 31 C s       :     2.898341  s :     2.898341
      pz      :     1.058898  p :     3.109470
      px      :     1.008038
      py      :     1.042535
      dz2     :     0.020049  d :     0.083487
      dxz     :     0.010557
      dyz     :     0.024839
      dx2y2   :     0.014233
      dxy     :     0.013809

 32 C s       :     2.915228  s :     2.915228
      pz      :     1.083026  p :     3.037480
      px      :     1.014687
      py      :     0.939767
      dz2     :     0.030124  d :     0.114345
      dxz     :     0.017294
      dyz     :     0.033444
      dx2y2   :     0.017592
      dxy     :     0.015892

 33 C s       :     2.914661  s :     2.914661
      pz      :     0.985227  p :     3.036755
      px      :     1.044743
      py      :     1.006785
      dz2     :     0.028550  d :     0.114448
      dxz     :     0.035982
      dyz     :     0.017386
      dx2y2   :     0.016096
      dxy     :     0.016434

 34 C s       :     2.898388  s :     2.898388
      pz      :     1.036935  p :     3.108836
      px      :     1.064913
      py      :     1.006988
      dz2     :     0.026114  d :     0.083476
      dxz     :     0.026913
      dyz     :     0.015588
      dx2y2   :     0.008054
      dxy     :     0.006806

 35 C s       :     2.909804  s :     2.909804
      pz      :     0.974391  p :     3.052485
      px      :     1.054584
      py      :     1.023510
      dz2     :     0.031287  d :     0.118041
      dxz     :     0.038769
      dyz     :     0.016152
      dx2y2   :     0.015948
      dxy     :     0.015886

 36 C s       :     2.898243  s :     2.898243
      pz      :     1.058892  p :     3.108969
      px      :     1.042089
      py      :     1.007988
      dz2     :     0.020857  d :     0.083481
      dxz     :     0.026732
      dyz     :     0.009246
      dx2y2   :     0.013469
      dxy     :     0.013177

 37 C s       :     2.915120  s :     2.915120
      pz      :     1.085698  p :     3.036718
      px      :     0.939597
      py      :     1.011423
      dz2     :     0.030569  d :     0.114284
      dxz     :     0.033935
      dyz     :     0.017329
      dx2y2   :     0.016288
      dxy     :     0.016163

 38 Cls       :     5.798443  s :     5.798443
      pz      :     3.816190  p :    11.091434
      px      :     3.934421
      py      :     3.340822
      dz2     :     0.004256  d :     0.034628
      dxz     :     0.000902
      dyz     :     0.011764
      dx2y2   :     0.013772
      dxy     :     0.003934

 39 Cls       :     5.799560  s :     5.799560
      pz      :     3.929055  p :    11.096455
      px      :     3.858296
      py      :     3.309105
      dz2     :     0.006075  d :     0.034643
      dxz     :     0.000801
      dyz     :     0.004246
      dx2y2   :     0.013314
      dxy     :     0.010207

 40 Cls       :     5.799369  s :     5.799369
      pz      :     3.496056  p :    11.095119
      px      :     3.918890
      py      :     3.680173
      dz2     :     0.008311  d :     0.034557
      dxz     :     0.004493
      dyz     :     0.016241
      dx2y2   :     0.003105
      dxy     :     0.002406

 41 Cls       :     5.807447  s :     5.807447
      pz      :     3.800313  p :    11.101374
      px      :     3.586373
      py      :     3.714689
      dz2     :     0.003871  d :     0.032095
      dxz     :     0.008033
      dyz     :     0.004597
      dx2y2   :     0.003210
      dxy     :     0.012384

 42 Cls       :     5.799183  s :     5.799183
      pz      :     3.515923  p :    11.095048
      px      :     3.762569
      py      :     3.816557
      dz2     :     0.007335  d :     0.034547
      dxz     :     0.012193
      dyz     :     0.008975
      dx2y2   :     0.002391
      dxy     :     0.003653

 43 Cls       :     5.799601  s :     5.799601
      pz      :     3.934609  p :    11.098269
      px      :     3.332973
      py      :     3.830687
      dz2     :     0.006250  d :     0.034541
      dxz     :     0.003827
      dyz     :     0.000751
      dx2y2   :     0.012479
      dxy     :     0.011233

 44 Cls       :     5.797551  s :     5.797551
      pz      :     3.468263  p :    11.103102
      px      :     3.811488
      py      :     3.823351
      dz2     :     0.009031  d :     0.033904
      dxz     :     0.010033
      dyz     :     0.009898
      dx2y2   :     0.002207
      dxy     :     0.002735

 45 Cls       :     5.797493  s :     5.797493
      pz      :     3.426546  p :    11.102920
      px      :     3.759348
      py      :     3.917025
      dz2     :     0.010872  d :     0.033902
      dxz     :     0.014015
      dyz     :     0.005178
      dx2y2   :     0.001921
      dxy     :     0.001916

 46 C s       :     2.855644  s :     2.855644
      pz      :     0.941611  p :     2.956529
      px      :     1.035107
      py      :     0.979812
      dz2     :     0.014004  d :     0.147318
      dxz     :     0.020138
      dyz     :     0.023521
      dx2y2   :     0.040982
      dxy     :     0.048672

 47 N s       :     3.216777  s :     3.216777
      pz      :     1.192796  p :     3.811280
      px      :     1.422092
      py      :     1.196392
      dz2     :     0.010562  d :     0.087917
      dxz     :     0.011876
      dyz     :     0.016133
      dx2y2   :     0.026990
      dxy     :     0.022356

 48 C s       :     2.898834  s :     2.898834
      pz      :     0.960993  p :     2.960239
      px      :     1.058717
      py      :     0.940529
      dz2     :     0.012778  d :     0.162843
      dxz     :     0.026121
      dyz     :     0.018719
      dx2y2   :     0.060849
      dxy     :     0.044376

 49 C s       :     2.876025  s :     2.876025
      pz      :     1.010823  p :     3.074891
      px      :     1.029548
      py      :     1.034520
      dz2     :     0.009664  d :     0.105309
      dxz     :     0.015273
      dyz     :     0.013737
      dx2y2   :     0.038376
      dxy     :     0.028259

 50 C s       :     2.915618  s :     2.915618
      pz      :     0.994643  p :     3.025261
      px      :     0.987611
      py      :     1.043007
      dz2     :     0.010490  d :     0.116481
      dxz     :     0.018812
      dyz     :     0.016535
      dx2y2   :     0.034466
      dxy     :     0.036178

 51 C s       :     2.898421  s :     2.898421
      pz      :     1.014834  p :     3.118240
      px      :     1.042730
      py      :     1.060677
      dz2     :     0.006900  d :     0.082293
      dxz     :     0.015639
      dyz     :     0.007943
      dx2y2   :     0.026282
      dxy     :     0.025529

 52 C s       :     2.877306  s :     2.877306
      pz      :     1.014685  p :     3.056509
      px      :     1.018376
      py      :     1.023448
      dz2     :     0.021728  d :     0.091907
      dxz     :     0.027829
      dyz     :     0.017120
      dx2y2   :     0.010655
      dxy     :     0.014576

 53 C s       :     2.871320  s :     2.871320
      pz      :     1.025809  p :     3.065251
      px      :     1.004031
      py      :     1.035410
      dz2     :     0.028858  d :     0.104560
      dxz     :     0.014057
      dyz     :     0.032750
      dx2y2   :     0.015757
      dxy     :     0.013139

 54 C s       :     2.871663  s :     2.871663
      pz      :     1.025954  p :     3.066028
      px      :     1.030718
      py      :     1.009356
      dz2     :     0.028533  d :     0.104518
      dxz     :     0.030731
      dyz     :     0.015146
      dx2y2   :     0.016595
      dxy     :     0.013513

 55 C s       :     2.914843  s :     2.914843
      pz      :     0.970920  p :     3.037589
      px      :     1.056462
      py      :     1.010207
      dz2     :     0.028883  d :     0.114467
      dxz     :     0.037278
      dyz     :     0.015544
      dx2y2   :     0.016071
      dxy     :     0.016690

 56 C s       :     2.898441  s :     2.898441
      pz      :     1.037102  p :     3.109311
      px      :     1.068781
      py      :     1.003428
      dz2     :     0.026077  d :     0.083500
      dxz     :     0.027507
      dyz     :     0.014802
      dx2y2   :     0.008961
      dxy     :     0.006153

 57 C s       :     2.909784  s :     2.909784
      pz      :     0.990240  p :     3.053365
      px      :     1.044398
      py      :     1.018726
      dz2     :     0.030507  d :     0.118033
      dxz     :     0.040414
      dyz     :     0.015111
      dx2y2   :     0.015904
      dxy     :     0.016097

 58 C s       :     2.898339  s :     2.898339
      pz      :     1.061558  p :     3.109506
      px      :     1.042739
      py      :     1.005209
      dz2     :     0.020200  d :     0.083500
      dxz     :     0.027761
      dyz     :     0.007364
      dx2y2   :     0.014563
      dxy     :     0.013611

 59 C s       :     2.915229  s :     2.915229
      pz      :     1.082564  p :     3.037651
      px      :     0.938450
      py      :     1.016637
      dz2     :     0.030326  d :     0.114346
      dxz     :     0.035578
      dyz     :     0.015892
      dx2y2   :     0.017100
      dxy     :     0.015450

 60 C s       :     2.914651  s :     2.914651
      pz      :     0.979117  p :     3.036927
      px      :     1.023919
      py      :     1.033891
      dz2     :     0.029285  d :     0.114441
      dxz     :     0.015238
      dyz     :     0.038474
      dx2y2   :     0.015498
      dxy     :     0.015946

 61 C s       :     2.898405  s :     2.898405
      pz      :     1.037569  p :     3.108671
      px      :     1.003933
      py      :     1.067169
      dz2     :     0.026545  d :     0.083483
      dxz     :     0.015647
      dyz     :     0.027221
      dx2y2   :     0.008051
      dxy     :     0.006019

 62 C s       :     2.909775  s :     2.909775
      pz      :     0.978936  p :     3.052762
      px      :     1.009926
      py      :     1.063901
      dz2     :     0.031606  d :     0.118040
      dxz     :     0.017165
      dyz     :     0.038301
      dx2y2   :     0.015053
      dxy     :     0.015915

 63 C s       :     2.898216  s :     2.898216
      pz      :     1.061177  p :     3.109101
      px      :     1.003540
      py      :     1.044384
      dz2     :     0.021065  d :     0.083497
      dxz     :     0.008781
      dyz     :     0.027042
      dx2y2   :     0.013790
      dxy     :     0.012819

 64 C s       :     2.915112  s :     2.915112
      pz      :     1.086576  p :     3.036925
      px      :     1.016600
      py      :     0.933749
      dz2     :     0.030820  d :     0.114249
      dxz     :     0.016404
      dyz     :     0.035507
      dx2y2   :     0.017231
      dxy     :     0.014288

 65 Cls       :     5.798474  s :     5.798474
      pz      :     3.842791  p :    11.092661
      px      :     3.484822
      py      :     3.765048
      dz2     :     0.004446  d :     0.034597
      dxz     :     0.008521
      dyz     :     0.002806
      dx2y2   :     0.006321
      dxy     :     0.012502

 66 Cls       :     5.799545  s :     5.799545
      pz      :     3.920465  p :    11.096316
      px      :     3.302347
      py      :     3.873505
      dz2     :     0.005824  d :     0.034655
      dxz     :     0.005084
      dyz     :     0.000612
      dx2y2   :     0.013844
      dxy     :     0.009291

 67 Cls       :     5.799359  s :     5.799359
      pz      :     3.456042  p :    11.095735
      px      :     3.793309
      py      :     3.846383
      dz2     :     0.009947  d :     0.034543
      dxz     :     0.011618
      dyz     :     0.008541
      dx2y2   :     0.001768
      dxy     :     0.002669

 68 Cls       :     5.807385  s :     5.807385
      pz      :     3.823931  p :    11.100755
      px      :     3.928267
      py      :     3.348558
      dz2     :     0.004062  d :     0.032129
      dxz     :     0.000670
      dyz     :     0.010792
      dx2y2   :     0.013057
      dxy     :     0.003547

 69 Cls       :     5.799156  s :     5.799156
      pz      :     3.482357  p :    11.094894
      px      :     3.917213
      py      :     3.695324
      dz2     :     0.008523  d :     0.034558
      dxz     :     0.004896
      dyz     :     0.016036
      dx2y2   :     0.002799
      dxy     :     0.002304

 70 Cls       :     5.799593  s :     5.799593
      pz      :     3.931494  p :    11.099563
      px      :     3.890284
      py      :     3.277784
      dz2     :     0.006163  d :     0.034493
      dxz     :     0.000484
      dyz     :     0.004299
      dx2y2   :     0.014755
      dxy     :     0.008793

 71 Cls       :     5.797519  s :     5.797519
      pz      :     3.491020  p :    11.103489
      px      :     3.700021
      py      :     3.912448
      dz2     :     0.007979  d :     0.033907
      dxz     :     0.015611
      dyz     :     0.004763
      dx2y2   :     0.002833
      dxy     :     0.002721

 72 Cls       :     5.797463  s :     5.797463
      pz      :     3.438272  p :    11.103026
      px      :     3.869503
      py      :     3.795251
      dz2     :     0.010182  d :     0.033914
      dxz     :     0.007662
      dyz     :     0.011952
      dx2y2   :     0.001841
      dxy     :     0.002277

 73 C s       :     2.913525  s :     2.913525
      pz      :     1.105551  p :     3.241248
      px      :     1.106313
      py      :     1.029383
      dz2     :     0.010383  d :     0.062011
      dxz     :     0.011011
      dyz     :     0.012538
      dx2y2   :     0.016338
      dxy     :     0.011743

 74 H s       :     0.871420  s :     0.871420
      pz      :     0.014471  p :     0.041756
      px      :     0.006403
      py      :     0.020883

 75 H s       :     0.853618  s :     0.853618
      pz      :     0.012889  p :     0.044070
      px      :     0.022726
      py      :     0.008456

 76 H s       :     0.862061  s :     0.862061
      pz      :     0.014273  p :     0.042614
      px      :     0.006287
      py      :     0.022054

 77 H s       :     0.862431  s :     0.862431
      pz      :     0.013758  p :     0.042612
      px      :     0.019918
      py      :     0.008936

 78 H s       :     0.864418  s :     0.864418
      pz      :     0.016105  p :     0.041979
      px      :     0.014301
      py      :     0.011572

 79 H s       :     0.873225  s :     0.873225
      pz      :     0.017043  p :     0.040884
      px      :     0.013244
      py      :     0.010596

 80 H s       :     0.872954  s :     0.872954
      pz      :     0.015878  p :     0.040892
      px      :     0.014010
      py      :     0.011004

 81 H s       :     0.864369  s :     0.864369
      pz      :     0.017510  p :     0.041978
      px      :     0.013325
      py      :     0.011143

 82 H s       :     0.862579  s :     0.862579
      pz      :     0.012718  p :     0.042644
      px      :     0.006562
      py      :     0.023364

 83 H s       :     0.872107  s :     0.872107
      pz      :     0.013056  p :     0.041721
      px      :     0.017871
      py      :     0.010793

 84 H s       :     0.853319  s :     0.853319
      pz      :     0.012063  p :     0.044119
      px      :     0.007231
      py      :     0.024824

 85 H s       :     0.862323  s :     0.862323
      pz      :     0.013140  p :     0.042548
      px      :     0.018718
      py      :     0.010690

 86 H s       :     0.857868  s :     0.857868
      pz      :     0.011871  p :     0.043713
      px      :     0.019814
      py      :     0.012028

 87 H s       :     0.848028  s :     0.848028
      pz      :     0.005385  p :     0.042979
      px      :     0.010651
      py      :     0.026943

 88 H s       :     0.848209  s :     0.848209
      pz      :     0.022866  p :     0.042966
      px      :     0.007539
      py      :     0.012560

 89 H s       :     0.848108  s :     0.848108
      pz      :     0.005287  p :     0.042969
      px      :     0.027761
      py      :     0.009920

 90 H s       :     0.848006  s :     0.848006
      pz      :     0.022135  p :     0.042972
      px      :     0.010500
      py      :     0.010338

 91 H s       :     0.858542  s :     0.858542
      pz      :     0.011208  p :     0.043692
      px      :     0.006277
      py      :     0.026207

 92 H s       :     0.848194  s :     0.848194
      pz      :     0.005493  p :     0.042970
      px      :     0.028699
      py      :     0.008778

 93 H s       :     0.848247  s :     0.848247
      pz      :     0.024144  p :     0.042964
      px      :     0.009172
      py      :     0.009647

 94 H s       :     0.848070  s :     0.848070
      pz      :     0.005240  p :     0.042969
      px      :     0.009413
      py      :     0.028317

 95 H s       :     0.848200  s :     0.848200
      pz      :     0.023180  p :     0.042961
      px      :     0.007812
      py      :     0.011969

 96 H s       :     0.872397  s :     0.872397
      pz      :     0.009788  p :     0.039659
      px      :     0.020429
      py      :     0.009442

 97 H s       :     0.864897  s :     0.864897
      pz      :     0.013813  p :     0.039791
      px      :     0.017782
      py      :     0.008196

 98 H s       :     0.871842  s :     0.871842
      pz      :     0.022257  p :     0.039669
      px      :     0.007673
      py      :     0.009740


SPIN
  0 C s       :     0.000000  s :     0.000000
      pz      :     0.000000  p :     0.000000
      px      :     0.000000
      py      :     0.000000
      dz2     :    -0.000000  d :    -0.000000
      dxz     :    -0.000000
      dyz     :    -0.000000
      dx2y2   :    -0.000000
      dxy     :    -0.000000

  1 C s       :    -0.000000  s :    -0.000000
      pz      :    -0.000000  p :    -0.000000
      px      :    -0.000000
      py      :    -0.000000
      dz2     :     0.000000  d :     0.000000
      dxz     :     0.000000
      dyz     :     0.000000
      dx2y2   :     0.000000
      dxy     :     0.000000

  2 C s       :     0.000000  s :     0.000000
      pz      :     0.000000  p :     0.000000
      px      :     0.000000
      py      :     0.000000
      dz2     :    -0.000000  d :    -0.000000
      dxz     :    -0.000000
      dyz     :    -0.000000
      dx2y2   :    -0.000000
      dxy     :    -0.000000

  3 C s       :    -0.000000  s :    -0.000000
      pz      :    -0.000000  p :    -0.000000
      px      :    -0.000000
      py      :    -0.000000
      dz2     :     0.000000  d :     0.000000
      dxz     :     0.000000
      dyz     :     0.000000
      dx2y2   :     0.000000
      dxy     :     0.000000

  4 C s       :     0.000000  s :     0.000000
      pz      :     0.000000  p :     0.000000
      px      :     0.000000
      py      :     0.000000
      dz2     :    -0.000000  d :    -0.000000
      dxz     :     0.000000
      dyz     :    -0.000000
      dx2y2   :    -0.000000
      dxy     :    -0.000000

  5 C s       :    -0.000000  s :    -0.000000
      pz      :    -0.000000  p :    -0.000000
      px      :    -0.000000
      py      :    -0.000000
      dz2     :     0.000000  d :     0.000000
      dxz     :     0.000000
      dyz     :     0.000000
      dx2y2   :     0.000000
      dxy     :     0.000000

  6 N s       :    -0.000000  s :    -0.000000
      pz      :     0.000000  p :     0.000000
      px      :    -0.000000
      py      :     0.000000
      dz2     :    -0.000000  d :    -0.000000
      dxz     :    -0.000000
      dyz     :    -0.000000
      dx2y2   :     0.000000
      dxy     :    -0.000000

  7 C s       :    -0.000000  s :    -0.000000
      pz      :    -0.000000  p :    -0.000000
      px      :    -0.000000
      py      :    -0.000000
      dz2     :     0.000000  d :     0.000000
      dxz     :     0.000000
      dyz     :     0.000000
      dx2y2   :     0.000000
      dxy     :     0.000000

  8 C s       :     0.000000  s :     0.000000
      pz      :    -0.000000  p :    -0.000000
      px      :    -0.000000
      py      :    -0.000000
      dz2     :     0.000000  d :     0.000000
      dxz     :     0.000000
      dyz     :     0.000000
      dx2y2   :     0.000000
      dxy     :    -0.000000

  9 C s       :    -0.000000  s :    -0.000000
      pz      :     0.000000  p :     0.000000
      px      :     0.000000
      py      :    -0.000000
      dz2     :     0.000000  d :     0.000000
      dxz     :    -0.000000
      dyz     :    -0.000000
      dx2y2   :    -0.000000
      dxy     :     0.000000

 10 C s       :     0.000000  s :     0.000000
      pz      :    -0.000000  p :    -0.000000
      px      :    -0.000000
      py      :    -0.000000
      dz2     :    -0.000000  d :     0.000000
      dxz     :     0.000000
      dyz     :     0.000000
      dx2y2   :    -0.000000
      dxy     :    -0.000000

 11 C s       :    -0.000000  s :    -0.000000
      pz      :     0.000000  p :     0.000000
      px      :     0.000000
      py      :    -0.000000
      dz2     :    -0.000000  d :    -0.000000
      dxz     :    -0.000000
      dyz     :    -0.000000
      dx2y2   :    -0.000000
      dxy     :    -0.000000

 12 C s       :    -0.000000  s :    -0.000000
      pz      :    -0.000000  p :    -0.000000
      px      :    -0.000000
      py      :     0.000000
      dz2     :    -0.000000  d :     0.000000
      dxz     :     0.000000
      dyz     :    -0.000000
      dx2y2   :    -0.000000
      dxy     :     0.000000

 13 C s       :    -0.000000  s :    -0.000000
      pz      :    -0.000000  p :     0.000000
      px      :     0.000000
      py      :     0.000000
      dz2     :    -0.000000  d :    -0.000000
      dxz     :    -0.000000
      dyz     :    -0.000000
      dx2y2   :     0.000000
      dxy     :    -0.000000

 14 C s       :     0.000000  s :     0.000000
      pz      :     0.000000  p :     0.000000
      px      :     0.000000
      py      :     0.000000
      dz2     :    -0.000000  d :    -0.000000
      dxz     :    -0.000000
      dyz     :    -0.000000
      dx2y2   :    -0.000000
      dxy     :    -0.000000

 15 C s       :    -0.000000  s :    -0.000000
      pz      :    -0.000000  p :    -0.000000
      px      :    -0.000000
      py      :    -0.000000
      dz2     :     0.000000  d :     0.000000
      dxz     :     0.000000
      dyz     :     0.000000
      dx2y2   :     0.000000
      dxy     :     0.000000

 16 C s       :     0.000000  s :     0.000000
      pz      :     0.000000  p :     0.000000
      px      :     0.000000
      py      :     0.000000
      dz2     :    -0.000000  d :    -0.000000
      dxz     :    -0.000000
      dyz     :    -0.000000
      dx2y2   :    -0.000000
      dxy     :    -0.000000

 17 C s       :    -0.000000  s :    -0.000000
      pz      :    -0.000000  p :    -0.000000
      px      :    -0.000000
      py      :    -0.000000
      dz2     :     0.000000  d :     0.000000
      dxz     :     0.000000
      dyz     :     0.000000
      dx2y2   :     0.000000
      dxy     :     0.000000

 18 C s       :     0.000000  s :     0.000000
      pz      :     0.000000  p :     0.000000
      px      :     0.000000
      py      :     0.000000
      dz2     :    -0.000000  d :    -0.000000
      dxz     :    -0.000000
      dyz     :    -0.000000
      dx2y2   :    -0.000000
      dxy     :    -0.000000

 19 C s       :     0.000000  s :     0.000000
      pz      :     0.000000  p :     0.000000
      px      :     0.000000
      py      :     0.000000
      dz2     :    -0.000000  d :    -0.000000
      dxz     :    -0.000000
      dyz     :    -0.000000
      dx2y2   :     0.000000
      dxy     :    -0.000000

 20 N s       :    -0.000000  s :    -0.000000
      pz      :    -0.000000  p :    -0.000000
      px      :    -0.000000
      py      :    -0.000000
      dz2     :     0.000000  d :     0.000000
      dxz     :     0.000000
      dyz     :     0.000000
      dx2y2   :     0.000000
      dxy     :     0.000000

 21 C s       :     0.000000  s :     0.000000
      pz      :     0.000000  p :     0.000000
      px      :     0.000000
      py      :     0.000000
      dz2     :     0.000000  d :    -0.000000
      dxz     :    -0.000000
      dyz     :    -0.000000
      dx2y2   :    -0.000000
      dxy     :    -0.000000

 22 C s       :    -0.000000  s :    -0.000000
      pz      :    -0.000000  p :    -0.000000
      px      :    -0.000000
      py      :    -0.000000
      dz2     :     0.000000  d :     0.000000
      dxz     :     0.000000
      dyz     :     0.000000
      dx2y2   :     0.000000
      dxy     :     0.000000

 23 C s       :     0.000000  s :     0.000000
      pz      :     0.000000  p :     0.000000
      px      :     0.000000
      py      :     0.000000
      dz2     :     0.000000  d :    -0.000000
      dxz     :    -0.000000
      dyz     :    -0.000000
      dx2y2   :    -0.000000
      dxy     :    -0.000000

 24 C s       :    -0.000000  s :    -0.000000
      pz      :    -0.000000  p :    -0.000000
      px      :    -0.000000
      py      :    -0.000000
      dz2     :     0.000000  d :     0.000000
      dxz     :     0.000000
      dyz     :     0.000000
      dx2y2   :     0.000000
      dxy     :     0.000000

 25 C s       :     0.000000  s :     0.000000
      pz      :     0.000000  p :     0.000000
      px      :     0.000000
      py      :     0.000000
      dz2     :    -0.000000  d :    -0.000000
      dxz     :    -0.000000
      dyz     :    -0.000000
      dx2y2   :    -0.000000
      dxy     :    -0.000000

 26 C s       :    -0.000000  s :    -0.000000
      pz      :    -0.000000  p :    -0.000000
      px      :    -0.000000
      py      :    -0.000000
      dz2     :     0.000000  d :     0.000000
      dxz     :     0.000000
      dyz     :     0.000000
      dx2y2   :     0.000000
      dxy     :     0.000000

 27 C s       :    -0.000000  s :    -0.000000
      pz      :    -0.000000  p :    -0.000000
      px      :    -0.000000
      py      :    -0.000000
      dz2     :     0.000000  d :     0.000000
      dxz     :     0.000000
      dyz     :     0.000000
      dx2y2   :     0.000000
      dxy     :     0.000000

 28 C s       :     0.000000  s :     0.000000
      pz      :     0.000000  p :     0.000000
      px      :     0.000000
      py      :     0.000000
      dz2     :    -0.000000  d :    -0.000000
      dxz     :     0.000000
      dyz     :    -0.000000
      dx2y2   :    -0.000000
      dxy     :    -0.000000

 29 C s       :    -0.000000  s :    -0.000000
      pz      :    -0.000000  p :    -0.000000
      px      :    -0.000000
      py      :    -0.000000
      dz2     :     0.000000  d :     0.000000
      dxz     :     0.000000
      dyz     :     0.000000
      dx2y2   :     0.000000
      dxy     :     0.000000

 30 C s       :     0.000000  s :     0.000000
      pz      :     0.000000  p :     0.000000
      px      :     0.000000
      py      :     0.000000
      dz2     :    -0.000000  d :    -0.000000
      dxz     :    -0.000000
      dyz     :    -0.000000
      dx2y2   :    -0.000000
      dxy     :    -0.000000

 31 C s       :    -0.000000  s :    -0.000000
      pz      :    -0.000000  p :    -0.000000
      px      :    -0.000000
      py      :    -0.000000
      dz2     :     0.000000  d :     0.000000
      dxz     :     0.000000
      dyz     :     0.000000
      dx2y2   :     0.000000
      dxy     :     0.000000

 32 C s       :     0.000000  s :     0.000000
      pz      :     0.000000  p :     0.000000
      px      :     0.000000
      py      :     0.000000
      dz2     :    -0.000000  d :    -0.000000
      dxz     :    -0.000000
      dyz     :    -0.000000
      dx2y2   :    -0.000000
      dxy     :    -0.000000

 33 C s       :     0.000000  s :     0.000000
      pz      :     0.000000  p :     0.000000
      px      :     0.000000
      py      :     0.000000
      dz2     :    -0.000000  d :    -0.000000
      dxz     :    -0.000000
      dyz     :    -0.000000
      dx2y2   :    -0.000000
      dxy     :    -0.000000

 34 C s       :    -0.000000  s :    -0.000000
      pz      :    -0.000000  p :    -0.000000
      px      :    -0.000000
      py      :    -0.000000
      dz2     :     0.000000  d :     0.000000
      dxz     :     0.000000
      dyz     :     0.000000
      dx2y2   :     0.000000
      dxy     :     0.000000

 35 C s       :     0.000000  s :     0.000000
      pz      :     0.000000  p :     0.000000
      px      :     0.000000
      py      :     0.000000
      dz2     :    -0.000000  d :    -0.000000
      dxz     :    -0.000000
      dyz     :    -0.000000
      dx2y2   :    -0.000000
      dxy     :    -0.000000

 36 C s       :    -0.000000  s :    -0.000000
      pz      :    -0.000000  p :    -0.000000
      px      :    -0.000000
      py      :    -0.000000
      dz2     :     0.000000  d :     0.000000
      dxz     :     0.000000
      dyz     :     0.000000
      dx2y2   :     0.000000
      dxy     :     0.000000

 37 C s       :     0.000000  s :     0.000000
      pz      :     0.000000  p :     0.000000
      px      :     0.000000
      py      :     0.000000
      dz2     :    -0.000000  d :    -0.000000
      dxz     :     0.000000
      dyz     :    -0.000000
      dx2y2   :    -0.000000
      dxy     :    -0.000000

 38 Cls       :     0.000000  s :     0.000000
      pz      :     0.000000  p :     0.000000
      px      :     0.000000
      py      :    -0.000000
      dz2     :     0.000000  d :     0.000000
      dxz     :     0.000000
      dyz     :     0.000000
      dx2y2   :     0.000000
      dxy     :     0.000000

 39 Cls       :     0.000000  s :     0.000000
      pz      :    -0.000000  p :     0.000000
      px      :     0.000000
      py      :    -0.000000
      dz2     :     0.000000  d :     0.000000
      dxz     :     0.000000
      dyz     :     0.000000
      dx2y2   :     0.000000
      dxy     :     0.000000

 40 Cls       :    -0.000000  s :    -0.000000
      pz      :     0.000000  p :     0.000000
      px      :     0.000000
      py      :     0.000000
      dz2     :     0.000000  d :     0.000000
      dxz     :     0.000000
      dyz     :     0.000000
      dx2y2   :     0.000000
      dxy     :     0.000000

 41 Cls       :    -0.000000  s :    -0.000000
      pz      :     0.000000  p :     0.000000
      px      :    -0.000000
      py      :     0.000000
      dz2     :     0.000000  d :     0.000000
      dxz     :     0.000000
      dyz     :     0.000000
      dx2y2   :     0.000000
      dxy     :     0.000000

 42 Cls       :     0.000000  s :     0.000000
      pz      :     0.000000  p :     0.000000
      px      :     0.000000
      py      :     0.000000
      dz2     :     0.000000  d :     0.000000
      dxz     :     0.000000
      dyz     :     0.000000
      dx2y2   :     0.000000
      dxy     :     0.000000

 43 Cls       :    -0.000000  s :    -0.000000
      pz      :    -0.000000  p :     0.000000
      px      :     0.000000
      py      :     0.000000
      dz2     :     0.000000  d :     0.000000
      dxz     :     0.000000
      dyz     :     0.000000
      dx2y2   :     0.000000
      dxy     :     0.000000

 44 Cls       :     0.000000  s :     0.000000
      pz      :     0.000000  p :     0.000000
      px      :     0.000000
      py      :     0.000000
      dz2     :     0.000000  d :     0.000000
      dxz     :     0.000000
      dyz     :     0.000000
      dx2y2   :     0.000000
      dxy     :     0.000000

 45 Cls       :     0.000000  s :     0.000000
      pz      :    -0.000000  p :     0.000000
      px      :     0.000000
      py      :     0.000000
      dz2     :     0.000000  d :     0.000000
      dxz     :     0.000000
      dyz     :     0.000000
      dx2y2   :     0.000000
      dxy     :     0.000000

 46 C s       :    -0.000000  s :    -0.000000
      pz      :    -0.000000  p :    -0.000000
      px      :    -0.000000
      py      :    -0.000000
      dz2     :     0.000000  d :     0.000000
      dxz     :     0.000000
      dyz     :     0.000000
      dx2y2   :     0.000000
      dxy     :    -0.000000

 47 N s       :     0.000000  s :     0.000000
      pz      :     0.000000  p :     0.000000
      px      :    -0.000000
      py      :     0.000000
      dz2     :    -0.000000  d :    -0.000000
      dxz     :    -0.000000
      dyz     :    -0.000000
      dx2y2   :    -0.000000
      dxy     :    -0.000000

 48 C s       :    -0.000000  s :    -0.000000
      pz      :    -0.000000  p :    -0.000000
      px      :    -0.000000
      py      :    -0.000000
      dz2     :    -0.000000  d :     0.000000
      dxz     :     0.000000
      dyz     :     0.000000
      dx2y2   :     0.000000
      dxy     :     0.000000

 49 C s       :     0.000000  s :     0.000000
      pz      :     0.000000  p :     0.000000
      px      :     0.000000
      py      :     0.000000
      dz2     :    -0.000000  d :    -0.000000
      dxz     :    -0.000000
      dyz     :    -0.000000
      dx2y2   :    -0.000000
      dxy     :    -0.000000

 50 C s       :    -0.000000  s :    -0.000000
      pz      :    -0.000000  p :    -0.000000
      px      :    -0.000000
      py      :    -0.000000
      dz2     :    -0.000000  d :     0.000000
      dxz     :     0.000000
      dyz     :     0.000000
      dx2y2   :     0.000000
      dxy     :     0.000000

 51 C s       :     0.000000  s :     0.000000
      pz      :     0.000000  p :     0.000000
      px      :     0.000000
      py      :     0.000000
      dz2     :    -0.000000  d :    -0.000000
      dxz     :    -0.000000
      dyz     :    -0.000000
      dx2y2   :    -0.000000
      dxy     :    -0.000000

 52 C s       :    -0.000000  s :    -0.000000
      pz      :    -0.000000  p :    -0.000000
      px      :    -0.000000
      py      :    -0.000000
      dz2     :     0.000000  d :     0.000000
      dxz     :     0.000000
      dyz     :     0.000000
      dx2y2   :     0.000000
      dxy     :     0.000000

 53 C s       :     0.000000  s :     0.000000
      pz      :     0.000000  p :     0.000000
      px      :     0.000000
      py      :     0.000000
      dz2     :    -0.000000  d :    -0.000000
      dxz     :    -0.000000
      dyz     :    -0.000000
      dx2y2   :    -0.000000
      dxy     :    -0.000000

 54 C s       :     0.000000  s :     0.000000
      pz      :     0.000000  p :     0.000000
      px      :     0.000000
      py      :     0.000000
      dz2     :    -0.000000  d :    -0.000000
      dxz     :    -0.000000
      dyz     :    -0.000000
      dx2y2   :    -0.000000
      dxy     :    -0.000000

 55 C s       :    -0.000000  s :    -0.000000
      pz      :    -0.000000  p :    -0.000000
      px      :    -0.000000
      py      :    -0.000000
      dz2     :     0.000000  d :     0.000000
      dxz     :     0.000000
      dyz     :     0.000000
      dx2y2   :     0.000000
      dxy     :     0.000000

 56 C s       :    -0.000000  s :    -0.000000
      pz      :     0.000000  p :     0.000000
      px      :     0.000000
      py      :     0.000000
      dz2     :    -0.000000  d :    -0.000000
      dxz     :    -0.000000
      dyz     :    -0.000000
      dx2y2   :    -0.000000
      dxy     :    -0.000000

 57 C s       :    -0.000000  s :    -0.000000
      pz      :    -0.000000  p :    -0.000000
      px      :    -0.000000
      py      :    -0.000000
      dz2     :     0.000000  d :     0.000000
      dxz     :     0.000000
      dyz     :     0.000000
      dx2y2   :     0.000000
      dxy     :     0.000000

 58 C s       :     0.000000  s :     0.000000
      pz      :     0.000000  p :     0.000000
      px      :     0.000000
      py      :     0.000000
      dz2     :    -0.000000  d :    -0.000000
      dxz     :    -0.000000
      dyz     :    -0.000000
      dx2y2   :    -0.000000
      dxy     :    -0.000000

 59 C s       :    -0.000000  s :    -0.000000
      pz      :    -0.000000  p :    -0.000000
      px      :    -0.000000
      py      :    -0.000000
      dz2     :     0.000000  d :     0.000000
      dxz     :     0.000000
      dyz     :     0.000000
      dx2y2   :     0.000000
      dxy     :     0.000000

 60 C s       :    -0.000000  s :    -0.000000
      pz      :    -0.000000  p :    -0.000000
      px      :    -0.000000
      py      :    -0.000000
      dz2     :     0.000000  d :     0.000000
      dxz     :     0.000000
      dyz     :     0.000000
      dx2y2   :     0.000000
      dxy     :     0.000000

 61 C s       :     0.000000  s :     0.000000
      pz      :     0.000000  p :     0.000000
      px      :     0.000000
      py      :     0.000000
      dz2     :    -0.000000  d :    -0.000000
      dxz     :    -0.000000
      dyz     :    -0.000000
      dx2y2   :    -0.000000
      dxy     :    -0.000000

 62 C s       :    -0.000000  s :    -0.000000
      pz      :    -0.000000  p :    -0.000000
      px      :    -0.000000
      py      :    -0.000000
      dz2     :     0.000000  d :     0.000000
      dxz     :     0.000000
      dyz     :     0.000000
      dx2y2   :     0.000000
      dxy     :     0.000000

 63 C s       :     0.000000  s :     0.000000
      pz      :    -0.000000  p :     0.000000
      px      :     0.000000
      py      :     0.000000
      dz2     :    -0.000000  d :    -0.000000
      dxz     :    -0.000000
      dyz     :    -0.000000
      dx2y2   :    -0.000000
      dxy     :    -0.000000

 64 C s       :    -0.000000  s :    -0.000000
      pz      :    -0.000000  p :    -0.000000
      px      :    -0.000000
      py      :    -0.000000
      dz2     :     0.000000  d :     0.000000
      dxz     :     0.000000
      dyz     :     0.000000
      dx2y2   :     0.000000
      dxy     :     0.000000

 65 Cls       :     0.000000  s :     0.000000
      pz      :    -0.000000  p :    -0.000000
      px      :     0.000000
      py      :    -0.000000
      dz2     :    -0.000000  d :    -0.000000
      dxz     :    -0.000000
      dyz     :    -0.000000
      dx2y2   :    -0.000000
      dxy     :    -0.000000

 66 Cls       :    -0.000000  s :    -0.000000
      pz      :     0.000000  p :    -0.000000
      px      :    -0.000000
      py      :    -0.000000
      dz2     :    -0.000000  d :    -0.000000
      dxz     :    -0.000000
      dyz     :     0.000000
      dx2y2   :    -0.000000
      dxy     :    -0.000000

 67 Cls       :     0.000000  s :     0.000000
      pz      :    -0.000000  p :    -0.000000
      px      :     0.000000
      py      :    -0.000000
      dz2     :    -0.000000  d :    -0.000000
      dxz     :    -0.000000
      dyz     :    -0.000000
      dx2y2   :    -0.000000
      dxy     :    -0.000000

 68 Cls       :     0.000000  s :     0.000000
      pz      :    -0.000000  p :    -0.000000
      px      :    -0.000000
      py      :     0.000000
      dz2     :    -0.000000  d :    -0.000000
      dxz     :    -0.000000
      dyz     :    -0.000000
      dx2y2   :     0.000000
      dxy     :    -0.000000

 69 Cls       :     0.000000  s :     0.000000
      pz      :    -0.000000  p :    -0.000000
      px      :    -0.000000
      py      :    -0.000000
      dz2     :    -0.000000  d :    -0.000000
      dxz     :    -0.000000
      dyz     :    -0.000000
      dx2y2   :    -0.000000
      dxy     :    -0.000000

 70 Cls       :    -0.000000  s :    -0.000000
      pz      :     0.000000  p :    -0.000000
      px      :    -0.000000
      py      :     0.000000
      dz2     :    -0.000000  d :    -0.000000
      dxz     :     0.000000
      dyz     :    -0.000000
      dx2y2   :    -0.000000
      dxy     :    -0.000000

 71 Cls       :    -0.000000  s :    -0.000000
      pz      :     0.000000  p :    -0.000000
      px      :     0.000000
      py      :    -0.000000
      dz2     :    -0.000000  d :    -0.000000
      dxz     :    -0.000000
      dyz     :    -0.000000
      dx2y2   :    -0.000000
      dxy     :    -0.000000

 72 Cls       :    -0.000000  s :    -0.000000
      pz      :     0.000000  p :    -0.000000
      px      :    -0.000000
      py      :    -0.000000
      dz2     :    -0.000000  d :    -0.000000
      dxz     :    -0.000000
      dyz     :    -0.000000
      dx2y2   :    -0.000000
      dxy     :    -0.000000

 73 C s       :    -0.000000  s :    -0.000000
      pz      :    -0.000000  p :    -0.000000
      px      :    -0.000000
      py      :     0.000000
      dz2     :     0.000000  d :     0.000000
      dxz     :    -0.000000
      dyz     :     0.000000
      dx2y2   :     0.000000
      dxy     :     0.000000

 74 H s       :    -0.000000  s :    -0.000000
      pz      :     0.000000  p :     0.000000
      px      :     0.000000
      py      :     0.000000

 75 H s       :    -0.000000  s :    -0.000000
      pz      :     0.000000  p :     0.000000
      px      :     0.000000
      py      :     0.000000

 76 H s       :     0.000000  s :     0.000000
      pz      :    -0.000000  p :    -0.000000
      px      :    -0.000000
      py      :    -0.000000

 77 H s       :     0.000000  s :     0.000000
      pz      :    -0.000000  p :    -0.000000
      px      :    -0.000000
      py      :    -0.000000

 78 H s       :    -0.000000  s :    -0.000000
      pz      :     0.000000  p :     0.000000
      px      :     0.000000
      py      :    -0.000000

 79 H s       :    -0.000000  s :    -0.000000
      pz      :    -0.000000  p :     0.000000
      px      :    -0.000000
      py      :     0.000000

 80 H s       :     0.000000  s :     0.000000
      pz      :    -0.000000  p :    -0.000000
      px      :    -0.000000
      py      :     0.000000

 81 H s       :    -0.000000  s :    -0.000000
      pz      :     0.000000  p :     0.000000
      px      :    -0.000000
      py      :     0.000000

 82 H s       :    -0.000000  s :    -0.000000
      pz      :     0.000000  p :     0.000000
      px      :     0.000000
      py      :     0.000000

 83 H s       :     0.000000  s :     0.000000
      pz      :    -0.000000  p :    -0.000000
      px      :    -0.000000
      py      :    -0.000000

 84 H s       :     0.000000  s :     0.000000
      pz      :    -0.000000  p :    -0.000000
      px      :    -0.000000
      py      :    -0.000000

 85 H s       :    -0.000000  s :    -0.000000
      pz      :     0.000000  p :     0.000000
      px      :     0.000000
      py      :     0.000000

 86 H s       :     0.000000  s :     0.000000
      pz      :    -0.000000  p :    -0.000000
      px      :    -0.000000
      py      :    -0.000000

 87 H s       :     0.000000  s :     0.000000
      pz      :    -0.000000  p :    -0.000000
      px      :    -0.000000
      py      :    -0.000000

 88 H s       :     0.000000  s :     0.000000
      pz      :    -0.000000  p :    -0.000000
      px      :    -0.000000
      py      :    -0.000000

 89 H s       :     0.000000  s :     0.000000
      pz      :    -0.000000  p :    -0.000000
      px      :    -0.000000
      py      :    -0.000000

 90 H s       :     0.000000  s :     0.000000
      pz      :    -0.000000  p :    -0.000000
      px      :    -0.000000
      py      :    -0.000000

 91 H s       :    -0.000000  s :    -0.000000
      pz      :     0.000000  p :     0.000000
      px      :    -0.000000
      py      :     0.000000

 92 H s       :    -0.000000  s :    -0.000000
      pz      :     0.000000  p :     0.000000
      px      :     0.000000
      py      :     0.000000

 93 H s       :    -0.000000  s :    -0.000000
      pz      :    -0.000000  p :     0.000000
      px      :     0.000000
      py      :     0.000000

 94 H s       :    -0.000000  s :    -0.000000
      pz      :    -0.000000  p :     0.000000
      px      :     0.000000
      py      :     0.000000

 95 H s       :    -0.000000  s :    -0.000000
      pz      :     0.000000  p :     0.000000
      px      :     0.000000
      py      :    -0.000000

 96 H s       :     0.000000  s :     0.000000
      pz      :    -0.000000  p :     0.000000
      px      :     0.000000
      py      :     0.000000

 97 H s       :    -0.000000  s :    -0.000000
      pz      :     0.000000  p :     0.000000
      px      :     0.000000
      py      :    -0.000000

 98 H s       :     0.000000  s :     0.000000
      pz      :     0.000000  p :     0.000000
      px      :    -0.000000
      py      :     0.000000



                      *****************************
                      * MAYER POPULATION ANALYSIS *
                      *****************************

  NA   - Mulliken gross atomic population
  ZA   - Total nuclear charge
  QA   - Mulliken gross atomic charge
  VA   - Mayer's total valence
  BVA  - Mayer's bonded valence
  FA   - Mayer's free valence

  ATOM       NA         ZA         QA         VA         BVA        FA
  0 C      6.1525     6.0000    -0.1525     3.9360     3.9360    -0.0000
  1 C      5.9677     6.0000     0.0323     3.9778     3.9778     0.0000
  2 C      6.1294     6.0000    -0.1294     3.9049     3.9049    -0.0000
  3 C      6.1435     6.0000    -0.1435     3.8843     3.8843    -0.0000
  4 C      5.7563     6.0000     0.2437     3.8922     3.8922     0.0000
  5 C      6.1504     6.0000    -0.1504     3.9056     3.9056     0.0000
  6 N      7.6210     7.0000    -0.6210     3.0159     3.0159    -0.0000
  7 C      5.7576     6.0000     0.2424     3.8932     3.8932    -0.0000
  8 C      5.8268     6.0000     0.1732     3.9317     3.9317    -0.0000
  9 C      6.1155     6.0000    -0.1155     3.8920     3.8920    -0.0000
 10 C      6.1598     6.0000    -0.1598     3.9447     3.9447    -0.0000
 11 C      5.9166     6.0000     0.0834     3.9373     3.9373    -0.0000
 12 C      6.1588     6.0000    -0.1588     3.9424     3.9424    -0.0000
 13 C      6.1146     6.0000    -0.1146     3.8919     3.8919    -0.0000
 14 C      6.1489     6.0000    -0.1489     3.9109     3.9109    -0.0000
 15 C      6.1518     6.0000    -0.1518     3.9342     3.9342    -0.0000
 16 C      5.9679     6.0000     0.0321     3.9786     3.9786    -0.0000
 17 C      6.1306     6.0000    -0.1306     3.9056     3.9056    -0.0000
 18 C      6.1456     6.0000    -0.1456     3.8783     3.8783    -0.0000
 19 C      5.7806     6.0000     0.2194     3.9536     3.9536     0.0000
 20 N      7.4404     7.0000    -0.4404     2.9924     2.9924    -0.0000
 21 C      5.9562     6.0000     0.0438     3.9515     3.9515     0.0000
 22 C      5.9094     6.0000     0.0906     3.9003     3.9003    -0.0000
 23 C      6.1354     6.0000    -0.1354     3.9624     3.9624    -0.0000
 24 C      6.0955     6.0000    -0.0955     3.8202     3.8202     0.0000
 25 C      6.1340     6.0000    -0.1340     3.9792     3.9792    -0.0000
 26 C      5.8836     6.0000     0.1164     3.9325     3.9325     0.0000
 27 C      5.8876     6.0000     0.1124     3.9305     3.9305    -0.0000
 28 C      6.1586     6.0000    -0.1586     3.9780     3.9780     0.0000
 29 C      6.0618     6.0000    -0.0618     3.8635     3.8635    -0.0000
 30 C      6.1465     6.0000    -0.1465     3.9919     3.9919    -0.0000
 31 C      6.0617     6.0000    -0.0617     3.8638     3.8638    -0.0000
 32 C      6.1581     6.0000    -0.1581     3.9759     3.9759    -0.0000
 33 C      6.1579     6.0000    -0.1579     3.9787     3.9787     0.0000
 34 C      6.0614     6.0000    -0.0614     3.8638     3.8638    -0.0000
 35 C      6.1462     6.0000    -0.1462     3.9924     3.9924     0.0000
 36 C      6.0608     6.0000    -0.0608     3.8643     3.8643     0.0000
 37 C      6.1571     6.0000    -0.1571     3.9767     3.9767     0.0000
 38 Cl    16.9422    17.0000     0.0578     1.1718     1.1718    -0.0000
 39 Cl    16.9492    17.0000     0.0508     1.1633     1.1633    -0.0000
 40 Cl    16.9477    17.0000     0.0523     1.1651     1.1651    -0.0000
 41 Cl    16.9518    17.0000     0.0482     1.1745     1.1745    -0.0000
 42 Cl    16.9476    17.0000     0.0524     1.1649     1.1649    -0.0000
 43 Cl    16.9515    17.0000     0.0485     1.1614     1.1614    -0.0000
 44 Cl    16.9608    17.0000     0.0392     1.1334     1.1334    -0.0000
 45 Cl    16.9606    17.0000     0.0394     1.1338     1.1338     0.0000
 46 C      5.7801     6.0000     0.2199     3.9537     3.9537     0.0000
 47 N      7.4408     7.0000    -0.4408     2.9923     2.9923     0.0000
 48 C      5.9566     6.0000     0.0434     3.9519     3.9519    -0.0000
 49 C      5.9093     6.0000     0.0907     3.9009     3.9009     0.0000
 50 C      6.1356     6.0000    -0.1356     3.9619     3.9619    -0.0000
 51 C      6.0955     6.0000    -0.0955     3.8203     3.8203    -0.0000
 52 C      6.1347     6.0000    -0.1347     3.9787     3.9787    -0.0000
 53 C      5.8832     6.0000     0.1168     3.9331     3.9331    -0.0000
 54 C      5.8876     6.0000     0.1124     3.9310     3.9310    -0.0000
 55 C      6.1587     6.0000    -0.1587     3.9776     3.9776    -0.0000
 56 C      6.0619     6.0000    -0.0619     3.8637     3.8637     0.0000
 57 C      6.1465     6.0000    -0.1465     3.9917     3.9917    -0.0000
 58 C      6.0618     6.0000    -0.0618     3.8640     3.8640    -0.0000
 59 C      6.1583     6.0000    -0.1583     3.9759     3.9759     0.0000
 60 C      6.1582     6.0000    -0.1582     3.9785     3.9785    -0.0000
 61 C      6.0613     6.0000    -0.0613     3.8638     3.8638     0.0000
 62 C      6.1463     6.0000    -0.1463     3.9921     3.9921    -0.0000
 63 C      6.0608     6.0000    -0.0608     3.8648     3.8648    -0.0000
 64 C      6.1570     6.0000    -0.1570     3.9759     3.9759    -0.0000
 65 Cl    16.9438    17.0000     0.0562     1.1705     1.1705    -0.0000
 66 Cl    16.9491    17.0000     0.0509     1.1634     1.1634    -0.0000
 67 Cl    16.9485    17.0000     0.0515     1.1644     1.1644    -0.0000
 68 Cl    16.9511    17.0000     0.0489     1.1753     1.1753    -0.0000
 69 Cl    16.9475    17.0000     0.0525     1.1650     1.1650    -0.0000
 70 Cl    16.9532    17.0000     0.0468     1.1601     1.1601    -0.0000
 71 Cl    16.9613    17.0000     0.0387     1.1329     1.1329    -0.0000
 72 Cl    16.9608    17.0000     0.0392     1.1335     1.1335    -0.0000
 73 C      6.4457     6.0000    -0.4457     3.8560     3.8560    -0.0000
 74 H      0.8635     1.0000     0.1365     0.9540     0.9540     0.0000
 75 H      0.8291     1.0000     0.1709     0.9565     0.9565     0.0000
 76 H      0.8464     1.0000     0.1536     0.9538     0.9538     0.0000
 77 H      0.8457     1.0000     0.1543     0.9536     0.9536     0.0000
 78 H      0.8511     1.0000     0.1489     0.9527     0.9527    -0.0000
 79 H      0.8682     1.0000     0.1318     0.9543     0.9543     0.0000
 80 H      0.8678     1.0000     0.1322     0.9542     0.9542     0.0000
 81 H      0.8511     1.0000     0.1489     0.9528     0.9528    -0.0000
 82 H      0.8476     1.0000     0.1524     0.9544     0.9544    -0.0000
 83 H      0.8650     1.0000     0.1350     0.9543     0.9543    -0.0000
 84 H      0.8284     1.0000     0.1716     0.9564     0.9564     0.0000
 85 H      0.8452     1.0000     0.1548     0.9532     0.9532     0.0000
 86 H      0.8418     1.0000     0.1582     0.9554     0.9554     0.0000
 87 H      0.8231     1.0000     0.1769     0.9502     0.9502    -0.0000
 88 H      0.8236     1.0000     0.1764     0.9504     0.9504     0.0000
 89 H      0.8234     1.0000     0.1766     0.9503     0.9503    -0.0000
 90 H      0.8232     1.0000     0.1768     0.9503     0.9503     0.0000
 91 H      0.8433     1.0000     0.1567     0.9558     0.9558     0.0000
 92 H      0.8234     1.0000     0.1766     0.9503     0.9503     0.0000
 93 H      0.8236     1.0000     0.1764     0.9504     0.9504    -0.0000
 94 H      0.8233     1.0000     0.1767     0.9503     0.9503     0.0000
 95 H      0.8237     1.0000     0.1763     0.9504     0.9504    -0.0000
 96 H      0.8533     1.0000     0.1467     0.9482     0.9482    -0.0000
 97 H      0.8383     1.0000     0.1617     0.9384     0.9384     0.0000
 98 H      0.8525     1.0000     0.1475     0.9477     0.9477    -0.0000

  Mayer bond orders larger than 0.100000
B(  0-C ,  1-C ) :   1.3697 B(  0-C ,  5-C ) :   1.4736 B(  0-C , 74-H ) :   0.9276 
B(  1-C ,  2-C ) :   1.3590 B(  1-C , 19-C ) :   1.0993 B(  2-C ,  3-C ) :   1.4620 
B(  2-C , 75-H ) :   0.9143 B(  3-C ,  4-C ) :   1.3594 B(  3-C , 76-H ) :   0.9254 
B(  4-C ,  5-C ) :   1.3578 B(  4-C ,  6-N ) :   0.9560 B(  5-C , 77-H ) :   0.9245 
B(  6-N ,  7-C ) :   0.9570 B(  6-N ,  8-C ) :   0.9126 B(  7-C , 14-C ) :   1.3646 
B(  7-C , 18-C ) :   1.3524 B(  8-C ,  9-C ) :   1.4042 B(  8-C , 13-C ) :   1.4020 
B(  9-C , 10-C ) :   1.4322 B(  9-C , 78-H ) :   0.9289 B( 10-C , 11-C ) :   1.4286 
B( 10-C , 79-H ) :   0.9352 B( 11-C , 12-C ) :   1.4252 B( 11-C , 73-C ) :   0.9936 
B( 12-C , 13-C ) :   1.4346 B( 12-C , 80-H ) :   0.9353 B( 13-C , 81-H ) :   0.9289 
B( 14-C , 15-C ) :   1.4722 B( 14-C , 82-H ) :   0.9243 B( 15-C , 16-C ) :   1.3704 
B( 15-C , 83-H ) :   0.9279 B( 16-C , 17-C ) :   1.3587 B( 16-C , 46-C ) :   1.0998 
B( 17-C , 18-C ) :   1.4629 B( 17-C , 84-H ) :   0.9139 B( 18-C , 85-H ) :   0.9260 
B( 19-C , 20-N ) :   1.3061 B( 19-C , 24-C ) :   1.3268 B( 20-N , 21-C ) :   1.4897 
B( 21-C , 22-C ) :   1.1995 B( 21-C , 41-Cl) :   1.0848 B( 22-C , 23-C ) :   1.2793 
B( 22-C , 25-C ) :   1.1875 B( 23-C , 24-C ) :   1.4277 B( 23-C , 38-Cl) :   1.0899 
B( 24-C , 86-H ) :   0.9160 B( 25-C , 26-C ) :   1.1226 B( 25-C , 27-C ) :   1.1225 
B( 25-C , 52-C ) :   0.1363 B( 26-C , 33-C ) :   1.3085 B( 26-C , 37-C ) :   1.3081 
B( 27-C , 28-C ) :   1.3088 B( 27-C , 32-C ) :   1.3080 B( 28-C , 29-C ) :   1.4178 
B( 28-C , 40-Cl) :   1.0803 B( 29-C , 30-C ) :   1.3902 B( 29-C , 87-H ) :   0.9239 
B( 30-C , 31-C ) :   1.3903 B( 30-C , 44-Cl) :   1.0604 B( 31-C , 32-C ) :   1.4178 
B( 31-C , 88-H ) :   0.9240 B( 32-C , 39-Cl) :   1.0786 B( 33-C , 34-C ) :   1.4185 
B( 33-C , 42-Cl) :   1.0801 B( 34-C , 35-C ) :   1.3898 B( 34-C , 89-H ) :   0.9239 
B( 35-C , 36-C ) :   1.3903 B( 35-C , 45-Cl) :   1.0606 B( 36-C , 37-C ) :   1.4186 
B( 36-C , 90-H ) :   0.9238 B( 37-C , 43-Cl) :   1.0772 B( 46-C , 47-N ) :   1.3064 
B( 46-C , 51-C ) :   1.3266 B( 47-N , 48-C ) :   1.4895 B( 48-C , 49-C ) :   1.1994 
B( 48-C , 68-Cl) :   1.0854 B( 49-C , 50-C ) :   1.2797 B( 49-C , 52-C ) :   1.1875 
B( 50-C , 51-C ) :   1.4278 B( 50-C , 65-Cl) :   1.0886 B( 51-C , 91-H ) :   0.9162 
B( 52-C , 53-C ) :   1.1227 B( 52-C , 54-C ) :   1.1225 B( 53-C , 60-C ) :   1.3084 
B( 53-C , 64-C ) :   1.3084 B( 54-C , 55-C ) :   1.3091 B( 54-C , 59-C ) :   1.3081 
B( 55-C , 56-C ) :   1.4178 B( 55-C , 67-Cl) :   1.0797 B( 56-C , 57-C ) :   1.3903 
B( 56-C , 92-H ) :   0.9240 B( 57-C , 58-C ) :   1.3905 B( 57-C , 71-Cl) :   1.0600 
B( 58-C , 59-C ) :   1.4177 B( 58-C , 93-H ) :   0.9240 B( 59-C , 66-Cl) :   1.0786 
B( 60-C , 61-C ) :   1.4184 B( 60-C , 69-Cl) :   1.0801 B( 61-C , 62-C ) :   1.3899 
B( 61-C , 94-H ) :   0.9239 B( 62-C , 63-C ) :   1.3902 B( 62-C , 72-Cl) :   1.0602 
B( 63-C , 64-C ) :   1.4188 B( 63-C , 95-H ) :   0.9239 B( 64-C , 70-Cl) :   1.0760 
B( 73-C , 96-H ) :   0.9538 B( 73-C , 97-H ) :   0.9397 B( 73-C , 98-H ) :   0.9529 


-------
TIMINGS
-------

Total SCF time: 0 days 0 hours 0 min 28 sec 

Total time                  ....      28.700 sec
Sum of individual times     ....      26.725 sec  ( 93.1%)

Fock matrix formation       ....      24.176 sec  ( 84.2%)
  Startup                   ....       0.073 sec  (  0.3% of F)
  Split-RI-J                ....       1.946 sec  (  8.0% of F)
  Chain of spheres X        ....      22.347 sec  ( 92.4% of F)
  XC integration            ....       0.902 sec  (  3.7% of F)
    XC Preparation          ....       0.000 sec  (  0.0% of XC)
    Basis function eval.    ....       0.133 sec  ( 14.7% of XC)
    Density eval.           ....       0.224 sec  ( 24.8% of XC)
    XC-Functional eval.     ....       0.018 sec  (  2.0% of XC)
    XC-Potential eval.      ....       0.205 sec  ( 22.7% of XC)
Diagonalization             ....       0.000 sec  (  0.0%)
Density matrix formation    ....       0.188 sec  (  0.7%)
Total Energy calculation    ....       0.084 sec  (  0.3%)
Population analysis         ....       0.309 sec  (  1.1%)
Orbital Transformation      ....       0.457 sec  (  1.6%)
Orbital Orthonormalization  ....       0.000 sec  (  0.0%)
DIIS solution               ....       0.545 sec  (  1.9%)
SOSCF solution              ....       0.856 sec  (  3.0%)
Finished LeanSCF after 127.5 sec

Maximum memory used throughout the entire LEANSCF-calculation: 221.0 MB


           ************************************************************
           *        Program running with 24 parallel MPI-processes    *
           *              working on a common directory               *
           ************************************************************

------------------------------------------------------------------------------
                         ORCA PROPERTY INTEGRAL CALCULATIONS
------------------------------------------------------------------------------

GBWName                                   ... TPA-Me.gbw
Number of atoms                           ...     99
Number of basis functions                 ...   1225
Max core memory                           ...  20000 MB

Dipole integrals                          ... YES
Quadrupole integrals                      ...  NO
Linear momentum integrals                 ... YES
Angular momentum integrals                ... YES
Higher moments length integrals           ...  NO
Higher moments velocity integrals         ...  NO
Kinetic energy integrals                  ...  NO
GIAO right hand sides                     ...  NO
GIAO dipole derivative integrals          ...  NO
SOC integrals                             ...  NO
EPR diamagnetic integrals (GIAO)          ...  NO
EPR gauge integrals                       ...  NO
Field gradient integrals                  ...  NO (   0 nuclei)
Spin-dipole/Fermi contact integrals       ...  NO (   0 nuclei)
Contact density integrals                 ...  NO (   0 nuclei)
Nucleus-orbit integrals                   ...  NO (   0 nuclei)
Geometric perturbations                   ...  NO (  99 nuclei)

Choice of electric origin   ... Center of mass
Position of electric origin ... (  0.0015, -0.1357,  0.0028) 
Choice of magnetic origin   ... GIAO
Position of magnetic origin ... (  0.0000,  0.0000,  0.0000) 

Calculating integrals                     ... Electric Dipole (Length)     done (  0.0 sec)
Calculating integrals                     ... Linear Momentum              done (  0.1 sec)
Calculating integrals                     ... Angular Momentum  (ElOri)    done (  0.1 sec)

Property integrals calculated in   0.2 sec

Maximum memory used throughout the entire PROPINT-calculation: 138.6 MB


           ************************************************************
           *        Program running with 24 parallel MPI-processes    *
           *              working on a common directory               *
           ************************************************************
------------------------------------------------------------------------------
                        ORCA TD-DFT/TDA CALCULATION
------------------------------------------------------------------------------

Input orbitals are from        ... TPA-Me.gbw
CI-vector output               ... TPA-Me.cis
Solver                         ... FN-2001
Tamm-Dancoff approximation     ... operative
CIS-Integral strategy          ... AO-integrals
Integral handling              ... AO integral Direct
Max. core memory used          ... 20000 MB
Reference state                ... UHF
Follow IRoot                   ... off
Number of operators            ... 2
Orbital ranges used for CIS calculation:
 Operator 0:  Orbitals 138...323  to 324...1224
 Operator 1:  Orbitals 138...323  to 324...1224
XAS localization array:
 Operator 0:  Orbitals  -1... -1
 Operator 1:  Orbitals  -1... -1

-------------------
XC-INTEGRATION GRID
-------------------

General Integration Accuracy     IntAcc      ... 3.467
Radial Grid Type                 RadialGrid  ... OptM3 with GC (2021)
Angular Grid (max. ang.)         AngularGrid ... 1 (Lebedev-50)
Angular grid pruning method      GridPruning ... 4 (adaptive)
Weight generation scheme         WeightScheme... mBecke (2022)
Basis function cutoff            BFCut       ... 1.0000e-11
Integration weight cutoff        WCut        ... 1.0000e-14
Partially contracted basis set               ... off
Rotationally invariant grid construction     ... off
Angular grids for H and He will be reduced by one unit

Total number of grid points                  ...    92559
Total number of batches                      ...     1493
Average number of points per batch           ...       61
Average number of grid points per atom       ...      935

---------------------
COSX-INTEGRATION GRID
---------------------

General Integration Accuracy     IntAcc      ... 3.067
Radial Grid Type                 RadialGrid  ... OptM3 with GC (2021)
Angular Grid (max. ang.)         AngularGrid ... 1 (Lebedev-50)
Angular grid pruning method      GridPruning ... 4 (adaptive)
Weight generation scheme         WeightScheme... mBecke (2022)
Basis function cutoff            BFCut       ... 1.0000e-11
Integration weight cutoff        WCut        ... 1.0000e-14
Partially contracted basis set               ... on
Rotationally invariant grid construction     ... off
Angular grids for H and He will be reduced by one unit

Total number of grid points                  ...    49201
Total number of batches                      ...      437
Average number of points per batch           ...      112
Average number of grid points per atom       ...      497

---------------
TD-DFT XC SETUP
---------------

DFT calculation                         ... on
Name of the grid file                   ... TPA-Me.grid_cis.tmp
RI-approximation                        ... on
Aux-basis dimension                     ... 0
Exchange functional (TD-DFT)            ... PBE
   PBE kappa parameter  XKappa (TD-DFT) ...  0.804000
   PBE mue parameter   XMuePBE (TD-DFT) ...  0.219520
Correlation functional (TD-DFT)         ... PBE
   PBE beta parameter CBetaPBE (TD-DFT) ...  0.066725
 LDA part of GGA corr.  LDAOpt (TD-DFT) ... PW91-LDA
Hybrid DFT                              ... on
   Exchange mixing (TD-DFT)             ...  0.250
   GGA exch. scaling (TD-DFT)           ...  0.750
   GGA corr. scaling (TD-DFT)           ...  1.000

Building densities             ... done
Calculating rho(r) on the grid ... done
Building xc-kernel on the grid ... done
                    *** TD-DFT CALCULATION INITIALIZED ***

------------------------
DAVIDSON-DIAGONALIZATION
------------------------

Dimension of the eigenvalue problem            ... 335172
Number of roots to be determined               ...     50
Maximum size of the expansion space            ...    500
Maximum number of iterations                   ...    100
Convergence tolerance for the residual         ...    2.500e-07
Convergence tolerance for the energies         ...    2.500e-07
Orthogonality tolerance                        ...    1.000e-14
Level Shift                                    ...    0.000e+00
Constructing the preconditioner                ... o.k.
Building the initial guess                     ... o.k.
Number of trial vectors determined             ...    500


                       ****Iteration    0****
   Time for iteration     :  TOTAL=81.3 TRAFO=7.6 RIJ=11.4 COSX=49.4 XC=11.8
   Size of expansion space: 150
   Lowest Energy          :    -0.028715827661
   Maximum Energy change  :     0.117232704894 (vector 49)
   Maximum residual norm  :     0.005815761905

                       ****Iteration    1****
   Time for iteration     :  TOTAL=30.7 TRAFO=2.6 RIJ=4.3 COSX=19.2 XC=4.4
   Size of expansion space: 200
   Lowest Energy          :    -0.031260881458
   Maximum Energy change  :     0.005502084329 (vector 2)
   Maximum residual norm  :     0.000933784909

                       ****Iteration    2****
   Time for iteration     :  TOTAL=30.7 TRAFO=2.6 RIJ=4.3 COSX=19.1 XC=4.4
   Size of expansion space: 250
   Lowest Energy          :    -0.031295070146
   Maximum Energy change  :     0.001029736965 (vector 9)
   Maximum residual norm  :     0.000176269944

                       ****Iteration    3****
   Time for iteration     :  TOTAL=30.8 TRAFO=2.6 RIJ=4.3 COSX=19.2 XC=4.4
   Size of expansion space: 300
   Lowest Energy          :    -0.031295479410
   Maximum Energy change  :     0.000372176750 (vector 48)
   Maximum residual norm  :     0.000047870209

                       ****Iteration    4****
   Time for iteration     :  TOTAL=31.0 TRAFO=2.7 RIJ=4.3 COSX=19.2 XC=4.4
   Size of expansion space: 350
   Lowest Energy          :    -0.031295484962
   Maximum Energy change  :     0.000110871454 (vector 49)
   Maximum residual norm  :     0.000278932959

                       ****Iteration    5****
   Time for iteration     :  TOTAL=30.9 TRAFO=2.6 RIJ=4.4 COSX=19.2 XC=4.5
   Size of expansion space: 400
   Lowest Energy          :    -0.031295485004
   Maximum Energy change  :     0.000299423009 (vector 49)
   Maximum residual norm  :     0.000011456995

                       ****Iteration    6****
   Time for iteration     :  TOTAL=31.0 TRAFO=2.6 RIJ=4.3 COSX=19.2 XC=4.5
   Size of expansion space: 450
   Lowest Energy          :    -0.031295485005
   Maximum Energy change  :     0.000014047287 (vector 48)
   Maximum residual norm  :     0.000000595906

                       ****Iteration    7****
   Time for iteration     :  TOTAL=30.9 TRAFO=2.6 RIJ=4.3 COSX=19.2 XC=4.5
   Size of expansion space: 500
   Lowest Energy          :    -0.031295485005
   Maximum Energy change  :     0.000000823757 (vector 47)
   Maximum residual norm  :     0.000000034395

      *** CONVERGENCE OF RESIDUAL NORM REACHED ***

Storing the converged CI vectors               ... TPA-Me.cis1

                 *** DAVIDSON DONE ***

Total time for solving the CIS problem:   399.577sec

-------------------------
TD-DFT/TDA EXCITED STATES
-------------------------

the weight of the individual excitations are printed if larger than 1.0e-02

UHF/UKS reference: multiplicity estimated based on rounded <S**2> value, RELEVANCE IS LIMITED!

STATE  1:  E=  -0.031295 au     -0.852 eV    -6868.6 cm**-1 <S**2> =   2.000000 Mult 3
   323a -> 324a  :     0.489714 (c=  0.69979584)
   323b -> 324b  :     0.489714 (c= -0.69979584)

STATE  2:  E=   0.029539 au      0.804 eV     6483.0 cm**-1 <S**2> =   2.000000 Mult 3
   322a -> 324a  :     0.491569 (c=  0.70111986)
   322b -> 324b  :     0.491569 (c= -0.70111986)

STATE  3:  E=   0.052690 au      1.434 eV    11564.0 cm**-1 <S**2> =   0.000000 Mult 1
   322a -> 324a  :     0.446334 (c=  0.66808239)
   323a -> 325a  :     0.039984 (c=  0.19995911)
   322b -> 324b  :     0.446334 (c=  0.66808239)
   323b -> 325b  :     0.039984 (c= -0.19995911)

STATE  4:  E=   0.071021 au      1.933 eV    15587.3 cm**-1 <S**2> =   2.000000 Mult 3
   321a -> 324a  :     0.476986 (c= -0.69064209)
   323a -> 326a  :     0.013917 (c= -0.11796853)
   321b -> 324b  :     0.476986 (c=  0.69064209)
   323b -> 326b  :     0.013917 (c= -0.11796853)

STATE  5:  E=   0.074351 au      2.023 eV    16318.1 cm**-1 <S**2> =   2.000000 Mult 3
   323a -> 325a  :     0.466150 (c=  0.68275213)
   323b -> 325b  :     0.466150 (c=  0.68275213)

STATE  6:  E=   0.079020 au      2.150 eV    17343.0 cm**-1 <S**2> =   2.000000 Mult 3
   318a -> 324a  :     0.088285 (c= -0.29712836)
   319a -> 324a  :     0.012732 (c=  0.11283616)
   320a -> 324a  :     0.373252 (c=  0.61094340)
   318b -> 324b  :     0.088285 (c=  0.29712836)
   319b -> 324b  :     0.012732 (c= -0.11283616)
   320b -> 324b  :     0.373252 (c= -0.61094340)

STATE  7:  E=   0.079233 au      2.156 eV    17389.7 cm**-1 <S**2> =   0.000000 Mult 1
   321a -> 324a  :     0.379140 (c= -0.61574364)
   322a -> 325a  :     0.027076 (c=  0.16454731)
   323a -> 324a  :     0.059092 (c= -0.24308857)
   323a -> 326a  :     0.016312 (c=  0.12771879)
   321b -> 324b  :     0.379140 (c= -0.61574364)
   322b -> 325b  :     0.027076 (c= -0.16454731)
   323b -> 324b  :     0.059092 (c= -0.24308857)
   323b -> 326b  :     0.016312 (c= -0.12771879)

STATE  8:  E=   0.079356 au      2.159 eV    17416.6 cm**-1 <S**2> =   2.000000 Mult 3
   319a -> 324a  :     0.460875 (c= -0.67887739)
   320a -> 324a  :     0.014030 (c=  0.11845028)
   319b -> 324b  :     0.460875 (c=  0.67887739)
   320b -> 324b  :     0.014030 (c= -0.11845028)

STATE  9:  E=   0.080784 au      2.198 eV    17730.0 cm**-1 <S**2> =   2.000000 Mult 3
   313a -> 324a  :     0.013758 (c= -0.11729564)
   318a -> 324a  :     0.379436 (c= -0.61598348)
   320a -> 324a  :     0.079886 (c= -0.28264042)
   313b -> 324b  :     0.013758 (c=  0.11729564)
   318b -> 324b  :     0.379436 (c=  0.61598348)
   320b -> 324b  :     0.079886 (c=  0.28264042)

STATE 10:  E=   0.082181 au      2.236 eV    18036.6 cm**-1 <S**2> =   0.000000 Mult 1
   311a -> 324a  :     0.024817 (c=  0.15753542)
   312a -> 324a  :     0.015942 (c= -0.12626223)
   317a -> 324a  :     0.011589 (c=  0.10765239)
   321a -> 324a  :     0.053536 (c=  0.23137866)
   322a -> 325a  :     0.032663 (c=  0.18072929)
   323a -> 324a  :     0.251932 (c= -0.50192841)
   323a -> 326a  :     0.072204 (c= -0.26870857)
   311b -> 324b  :     0.024817 (c=  0.15753542)
   312b -> 324b  :     0.015942 (c= -0.12626223)
   317b -> 324b  :     0.011589 (c=  0.10765239)
   321b -> 324b  :     0.053536 (c=  0.23137866)
   322b -> 325b  :     0.032663 (c= -0.18072929)
   323b -> 324b  :     0.251932 (c= -0.50192841)
   323b -> 326b  :     0.072204 (c=  0.26870857)

STATE 11:  E=   0.085012 au      2.313 eV    18658.0 cm**-1 <S**2> =   2.000000 Mult 3
   317a -> 324a  :     0.132338 (c=  0.36378330)
   321a -> 324a  :     0.013438 (c=  0.11592099)
   323a -> 326a  :     0.328987 (c= -0.57357351)
   317b -> 324b  :     0.132338 (c= -0.36378330)
   321b -> 324b  :     0.013438 (c= -0.11592099)
   323b -> 326b  :     0.328987 (c= -0.57357351)

STATE 12:  E=   0.085590 au      2.329 eV    18784.8 cm**-1 <S**2> =   0.000000 Mult 1
   318a -> 324a  :     0.052385 (c=  0.22887786)
   320a -> 324a  :     0.307565 (c=  0.55458546)
   322a -> 324a  :     0.014062 (c= -0.11858246)
   323a -> 325a  :     0.108726 (c=  0.32973653)
   318b -> 324b  :     0.052385 (c=  0.22887786)
   320b -> 324b  :     0.307565 (c=  0.55458546)
   322b -> 324b  :     0.014062 (c= -0.11858246)
   323b -> 325b  :     0.108726 (c= -0.32973653)

STATE 13:  E=   0.086472 au      2.353 eV    18978.3 cm**-1 <S**2> =   2.000000 Mult 3
   315a -> 324a  :     0.011890 (c= -0.10904331)
   317a -> 324a  :     0.340575 (c= -0.58358786)
   323a -> 326a  :     0.127113 (c= -0.35652912)
   315b -> 324b  :     0.011890 (c=  0.10904331)
   317b -> 324b  :     0.340575 (c=  0.58358786)
   323b -> 326b  :     0.127113 (c= -0.35652912)

STATE 14:  E=   0.086783 au      2.361 eV    19046.6 cm**-1 <S**2> =   0.000000 Mult 1
   318a -> 324a  :     0.094610 (c= -0.30758723)
   319a -> 324a  :     0.351540 (c=  0.59290793)
   320a -> 324a  :     0.022997 (c=  0.15164706)
   318b -> 324b  :     0.094610 (c= -0.30758723)
   319b -> 324b  :     0.351540 (c=  0.59290793)
   320b -> 324b  :     0.022997 (c=  0.15164706)

STATE 15:  E=   0.086821 au      2.363 eV    19055.0 cm**-1 <S**2> =   0.000000 Mult 1
   318a -> 324a  :     0.261815 (c= -0.51167852)
   319a -> 324a  :     0.119575 (c= -0.34579574)
   320a -> 324a  :     0.079970 (c=  0.28278882)
   323a -> 325a  :     0.011513 (c= -0.10729881)
   318b -> 324b  :     0.261815 (c= -0.51167852)
   319b -> 324b  :     0.119575 (c= -0.34579574)
   320b -> 324b  :     0.079970 (c=  0.28278882)
   323b -> 325b  :     0.011513 (c=  0.10729881)

STATE 16:  E=   0.086904 au      2.365 eV    19073.2 cm**-1 <S**2> =   2.000000 Mult 3
   314a -> 324a  :     0.076339 (c= -0.27629511)
   315a -> 324a  :     0.012950 (c=  0.11379880)
   316a -> 324a  :     0.380129 (c=  0.61654608)
   314b -> 324b  :     0.076339 (c=  0.27629511)
   315b -> 324b  :     0.012950 (c= -0.11379880)
   316b -> 324b  :     0.380129 (c= -0.61654608)

STATE 17:  E=   0.087306 au      2.376 eV    19161.4 cm**-1 <S**2> =   2.000000 Mult 3
   314a -> 324a  :     0.139294 (c= -0.37322057)
   315a -> 324a  :     0.325771 (c= -0.57076364)
   314b -> 324b  :     0.139294 (c=  0.37322057)
   315b -> 324b  :     0.325771 (c=  0.57076364)

STATE 18:  E=   0.087628 au      2.384 eV    19232.1 cm**-1 <S**2> =   2.000000 Mult 3
   314a -> 324a  :     0.265093 (c= -0.51487213)
   315a -> 324a  :     0.132086 (c=  0.36343584)
   316a -> 324a  :     0.080505 (c= -0.28373328)
   314b -> 324b  :     0.265093 (c=  0.51487213)
   315b -> 324b  :     0.132086 (c= -0.36343584)
   316b -> 324b  :     0.080505 (c=  0.28373328)

STATE 19:  E=   0.089593 au      2.438 eV    19663.3 cm**-1 <S**2> =   0.000000 Mult 1
   314a -> 324a  :     0.020661 (c=  0.14374091)
   316a -> 324a  :     0.259263 (c=  0.50917871)
   318a -> 324a  :     0.031666 (c=  0.17794996)
   320a -> 324a  :     0.031480 (c=  0.17742603)
   323a -> 325a  :     0.136928 (c= -0.37003735)
   314b -> 324b  :     0.020661 (c=  0.14374091)
   316b -> 324b  :     0.259263 (c=  0.50917871)
   318b -> 324b  :     0.031666 (c=  0.17794996)
   320b -> 324b  :     0.031480 (c=  0.17742603)
   323b -> 325b  :     0.136928 (c=  0.37003735)

STATE 20:  E=   0.090420 au      2.460 eV    19844.9 cm**-1 <S**2> =   0.000000 Mult 1
   317a -> 324a  :     0.453238 (c= -0.67322918)
   323a -> 326a  :     0.034528 (c= -0.18581599)
   317b -> 324b  :     0.453238 (c= -0.67322918)
   323b -> 326b  :     0.034528 (c=  0.18581599)

STATE 21:  E=   0.091795 au      2.498 eV    20146.7 cm**-1 <S**2> =   0.000000 Mult 1
   314a -> 324a  :     0.385761 (c=  0.62109657)
   315a -> 324a  :     0.068816 (c=  0.26232761)
   316a -> 324a  :     0.031500 (c= -0.17748349)
   314b -> 324b  :     0.385761 (c=  0.62109657)
   315b -> 324b  :     0.068816 (c=  0.26232761)
   316b -> 324b  :     0.031500 (c= -0.17748349)

STATE 22:  E=   0.091878 au      2.500 eV    20164.9 cm**-1 <S**2> =   0.000000 Mult 1
   314a -> 324a  :     0.055785 (c=  0.23618928)
   315a -> 324a  :     0.415501 (c= -0.64459390)
   316a -> 324a  :     0.015293 (c= -0.12366371)
   314b -> 324b  :     0.055785 (c=  0.23618928)
   315b -> 324b  :     0.415501 (c= -0.64459390)
   316b -> 324b  :     0.015293 (c= -0.12366371)

STATE 23:  E=   0.092275 au      2.511 eV    20251.9 cm**-1 <S**2> =   2.000000 Mult 3
   311a -> 324a  :     0.275537 (c=  0.52491654)
   312a -> 324a  :     0.173960 (c= -0.41708469)
   313a -> 324a  :     0.013481 (c=  0.11610921)
   311b -> 324b  :     0.275537 (c= -0.52491654)
   312b -> 324b  :     0.173960 (c=  0.41708469)
   313b -> 324b  :     0.013481 (c= -0.11610921)

STATE 24:  E=   0.093769 au      2.552 eV    20579.8 cm**-1 <S**2> =   2.000000 Mult 3
   304a -> 324a  :     0.012811 (c= -0.11318361)
   308a -> 324a  :     0.016629 (c= -0.12895436)
   309a -> 324a  :     0.011522 (c=  0.10734008)
   310a -> 324a  :     0.095214 (c=  0.30856793)
   312a -> 324a  :     0.019264 (c=  0.13879533)
   313a -> 324a  :     0.282548 (c=  0.53155235)
   316a -> 324a  :     0.011951 (c=  0.10931931)
   304b -> 324b  :     0.012811 (c=  0.11318361)
   308b -> 324b  :     0.016629 (c=  0.12895436)
   309b -> 324b  :     0.011522 (c= -0.10734008)
   310b -> 324b  :     0.095214 (c= -0.30856793)
   312b -> 324b  :     0.019264 (c= -0.13879533)
   313b -> 324b  :     0.282548 (c= -0.53155235)
   316b -> 324b  :     0.011951 (c= -0.10931931)

STATE 25:  E=   0.096751 au      2.633 eV    21234.5 cm**-1 <S**2> =   0.000000 Mult 1
   313a -> 324a  :     0.010167 (c=  0.10083399)
   314a -> 324a  :     0.024930 (c= -0.15789256)
   316a -> 324a  :     0.173638 (c= -0.41669877)
   318a -> 324a  :     0.037155 (c=  0.19275508)
   320a -> 324a  :     0.037206 (c=  0.19288910)
   323a -> 325a  :     0.172711 (c= -0.41558560)
   313b -> 324b  :     0.010167 (c=  0.10083399)
   314b -> 324b  :     0.024930 (c= -0.15789256)
   316b -> 324b  :     0.173638 (c= -0.41669877)
   318b -> 324b  :     0.037155 (c=  0.19275508)
   320b -> 324b  :     0.037206 (c=  0.19288910)
   323b -> 325b  :     0.172711 (c=  0.41558560)

STATE 26:  E=   0.098451 au      2.679 eV    21607.5 cm**-1 <S**2> =   2.000000 Mult 3
   307a -> 324a  :     0.017298 (c=  0.13152372)
   309a -> 324a  :     0.010153 (c= -0.10076390)
   310a -> 324a  :     0.282023 (c= -0.53105880)
   313a -> 324a  :     0.118294 (c=  0.34393844)
   323a -> 327a  :     0.030368 (c=  0.17426489)
   323a -> 328a  :     0.013118 (c=  0.11453434)
   307b -> 324b  :     0.017298 (c= -0.13152372)
   309b -> 324b  :     0.010153 (c=  0.10076390)
   310b -> 324b  :     0.282023 (c=  0.53105880)
   313b -> 324b  :     0.118294 (c= -0.34393844)
   323b -> 327b  :     0.030368 (c=  0.17426489)
   323b -> 328b  :     0.013118 (c=  0.11453434)

STATE 27:  E=   0.100054 au      2.723 eV    21959.3 cm**-1 <S**2> =   2.000000 Mult 3
   309a -> 324a  :     0.038319 (c= -0.19575119)
   311a -> 324a  :     0.030102 (c= -0.17349976)
   312a -> 324a  :     0.036539 (c= -0.19115266)
   323a -> 327a  :     0.151427 (c= -0.38913642)
   323a -> 328a  :     0.191070 (c=  0.43711552)
   309b -> 324b  :     0.038319 (c=  0.19575119)
   311b -> 324b  :     0.030102 (c=  0.17349976)
   312b -> 324b  :     0.036539 (c=  0.19115266)
   323b -> 327b  :     0.151427 (c= -0.38913642)
   323b -> 328b  :     0.191070 (c=  0.43711552)

STATE 28:  E=   0.100268 au      2.728 eV    22006.2 cm**-1 <S**2> =   0.000000 Mult 1
   310a -> 324a  :     0.012083 (c= -0.10992161)
   311a -> 324a  :     0.025900 (c= -0.16093606)
   312a -> 324a  :     0.022029 (c=  0.14842267)
   313a -> 324a  :     0.038006 (c=  0.19495249)
   317a -> 324a  :     0.015988 (c=  0.12644335)
   321a -> 324a  :     0.036104 (c= -0.19001019)
   323a -> 324a  :     0.015194 (c=  0.12326401)
   323a -> 326a  :     0.299980 (c= -0.54770399)
   310b -> 324b  :     0.012083 (c= -0.10992161)
   311b -> 324b  :     0.025900 (c= -0.16093606)
   312b -> 324b  :     0.022029 (c=  0.14842267)
   313b -> 324b  :     0.038006 (c=  0.19495249)
   317b -> 324b  :     0.015988 (c=  0.12644335)
   321b -> 324b  :     0.036104 (c= -0.19001019)
   323b -> 324b  :     0.015194 (c=  0.12326401)
   323b -> 326b  :     0.299980 (c=  0.54770399)

STATE 29:  E=   0.100694 au      2.740 eV    22099.8 cm**-1 <S**2> =   2.000000 Mult 3
   310a -> 324a  :     0.035686 (c= -0.18890692)
   313a -> 324a  :     0.012565 (c=  0.11209438)
   323a -> 327a  :     0.237284 (c= -0.48711809)
   323a -> 328a  :     0.166542 (c= -0.40809536)
   323a -> 329a  :     0.010497 (c=  0.10245686)
   310b -> 324b  :     0.035686 (c=  0.18890692)
   313b -> 324b  :     0.012565 (c= -0.11209438)
   323b -> 327b  :     0.237284 (c= -0.48711809)
   323b -> 328b  :     0.166542 (c= -0.40809536)
   323b -> 329b  :     0.010497 (c=  0.10245686)

STATE 30:  E=   0.101068 au      2.750 eV    22181.9 cm**-1 <S**2> =   0.000000 Mult 1
   310a -> 324a  :     0.034833 (c= -0.18663696)
   311a -> 324a  :     0.011362 (c=  0.10659444)
   313a -> 324a  :     0.390880 (c=  0.62520426)
   323a -> 326a  :     0.036701 (c=  0.19157476)
   310b -> 324b  :     0.034833 (c= -0.18663696)
   311b -> 324b  :     0.011362 (c=  0.10659444)
   313b -> 324b  :     0.390880 (c=  0.62520426)
   323b -> 326b  :     0.036701 (c= -0.19157476)

STATE 31:  E=   0.101370 au      2.758 eV    22248.1 cm**-1 <S**2> =   2.000000 Mult 3
   309a -> 324a  :     0.057702 (c= -0.24021214)
   311a -> 324a  :     0.115338 (c= -0.33961499)
   312a -> 324a  :     0.162852 (c= -0.40354926)
   323a -> 327a  :     0.025693 (c=  0.16028975)
   323a -> 328a  :     0.086874 (c= -0.29474447)
   309b -> 324b  :     0.057702 (c=  0.24021214)
   311b -> 324b  :     0.115338 (c=  0.33961499)
   312b -> 324b  :     0.162852 (c=  0.40354926)
   323b -> 327b  :     0.025693 (c=  0.16028975)
   323b -> 328b  :     0.086874 (c= -0.29474446)

STATE 32:  E=   0.103148 au      2.807 eV    22638.4 cm**-1 <S**2> =   0.000000 Mult 1
   309a -> 324a  :     0.046692 (c= -0.21608425)
   310a -> 324a  :     0.022842 (c= -0.15113422)
   311a -> 324a  :     0.018213 (c= -0.13495461)
   312a -> 324a  :     0.376787 (c= -0.61382989)
   309b -> 324b  :     0.046692 (c= -0.21608425)
   310b -> 324b  :     0.022842 (c= -0.15113422)
   311b -> 324b  :     0.018213 (c= -0.13495461)
   312b -> 324b  :     0.376787 (c= -0.61382989)

STATE 33:  E=   0.104530 au      2.844 eV    22941.8 cm**-1 <S**2> =   2.000000 Mult 3
   306a -> 324a  :     0.011992 (c= -0.10950896)
   307a -> 324a  :     0.015218 (c=  0.12336068)
   308a -> 324a  :     0.080233 (c= -0.28325368)
   309a -> 324a  :     0.055782 (c=  0.23618256)
   311a -> 324a  :     0.017476 (c= -0.13219718)
   312a -> 324a  :     0.045878 (c= -0.21419139)
   322a -> 325a  :     0.018497 (c=  0.13600504)
   323a -> 329a  :     0.165670 (c=  0.40702533)
   323a -> 330a  :     0.052926 (c=  0.23005675)
   306b -> 324b  :     0.011992 (c=  0.10950896)
   307b -> 324b  :     0.015218 (c= -0.12336068)
   308b -> 324b  :     0.080233 (c=  0.28325368)
   309b -> 324b  :     0.055782 (c= -0.23618256)
   311b -> 324b  :     0.017476 (c=  0.13219718)
   312b -> 324b  :     0.045878 (c=  0.21419139)
   322b -> 325b  :     0.018497 (c=  0.13600504)
   323b -> 329b  :     0.165670 (c=  0.40702533)
   323b -> 330b  :     0.052926 (c=  0.23005675)

STATE 34:  E=   0.104724 au      2.850 eV    22984.2 cm**-1 <S**2> =   2.000000 Mult 3
   306a -> 324a  :     0.030982 (c= -0.17601737)
   307a -> 324a  :     0.108256 (c= -0.32902299)
   309a -> 324a  :     0.078247 (c=  0.27972723)
   311a -> 324a  :     0.013744 (c= -0.11723272)
   312a -> 324a  :     0.015089 (c= -0.12283740)
   323a -> 329a  :     0.099919 (c= -0.31609901)
   323a -> 330a  :     0.096991 (c=  0.31143353)
   306b -> 324b  :     0.030982 (c=  0.17601737)
   307b -> 324b  :     0.108256 (c=  0.32902299)
   309b -> 324b  :     0.078247 (c= -0.27972723)
   311b -> 324b  :     0.013744 (c=  0.11723272)
   312b -> 324b  :     0.015089 (c=  0.12283740)
   323b -> 329b  :     0.099919 (c= -0.31609901)
   323b -> 330b  :     0.096991 (c=  0.31143353)

STATE 35:  E=   0.104802 au      2.852 eV    23001.3 cm**-1 <S**2> =   0.000000 Mult 1
   304a -> 324a  :     0.012299 (c=  0.11090205)
   307a -> 324a  :     0.021272 (c= -0.14584834)
   310a -> 324a  :     0.347770 (c=  0.58972054)
   311a -> 324a  :     0.014833 (c= -0.12179235)
   312a -> 324a  :     0.024857 (c= -0.15766016)
   313a -> 324a  :     0.033267 (c=  0.18239259)
   304b -> 324b  :     0.012299 (c=  0.11090205)
   307b -> 324b  :     0.021272 (c= -0.14584834)
   310b -> 324b  :     0.347770 (c=  0.58972054)
   311b -> 324b  :     0.014833 (c= -0.12179235)
   312b -> 324b  :     0.024857 (c= -0.15766016)
   313b -> 324b  :     0.033267 (c=  0.18239259)

STATE 36:  E=   0.105379 au      2.868 eV    23128.1 cm**-1 <S**2> =   2.000000 Mult 3
   321a -> 326a  :     0.017283 (c= -0.13146666)
   322a -> 325a  :     0.400616 (c=  0.63294237)
   322a -> 337a  :     0.013702 (c=  0.11705701)
   321b -> 326b  :     0.017283 (c= -0.13146666)
   322b -> 325b  :     0.400616 (c=  0.63294237)
   322b -> 337b  :     0.013702 (c=  0.11705701)

STATE 37:  E=   0.105404 au      2.868 eV    23133.5 cm**-1 <S**2> =   0.000000 Mult 1
   305a -> 324a  :     0.046014 (c=  0.21450986)
   307a -> 324a  :     0.010956 (c=  0.10467249)
   309a -> 324a  :     0.013278 (c=  0.11522855)
   311a -> 324a  :     0.318364 (c=  0.56423733)
   312a -> 324a  :     0.010838 (c= -0.10410521)
   322a -> 325a  :     0.010065 (c= -0.10032657)
   323a -> 324a  :     0.014502 (c=  0.12042375)
   323a -> 327a  :     0.016823 (c= -0.12970190)
   305b -> 324b  :     0.046014 (c=  0.21450986)
   307b -> 324b  :     0.010956 (c=  0.10467249)
   309b -> 324b  :     0.013278 (c=  0.11522855)
   311b -> 324b  :     0.318364 (c=  0.56423733)
   312b -> 324b  :     0.010838 (c= -0.10410521)
   322b -> 325b  :     0.010065 (c=  0.10032657)
   323b -> 324b  :     0.014502 (c=  0.12042375)
   323b -> 327b  :     0.016823 (c=  0.12970190)

STATE 38:  E=   0.106690 au      2.903 eV    23415.8 cm**-1 <S**2> =   2.000000 Mult 3
   307a -> 324a  :     0.102406 (c= -0.32000985)
   308a -> 324a  :     0.132764 (c=  0.36436831)
   309a -> 324a  :     0.039482 (c= -0.19870119)
   323a -> 327a  :     0.017874 (c=  0.13369477)
   323a -> 329a  :     0.142823 (c=  0.37791979)
   323a -> 330a  :     0.034522 (c=  0.18580118)
   307b -> 324b  :     0.102406 (c=  0.32000985)
   308b -> 324b  :     0.132764 (c= -0.36436831)
   309b -> 324b  :     0.039482 (c=  0.19870119)
   323b -> 327b  :     0.017874 (c=  0.13369477)
   323b -> 329b  :     0.142823 (c=  0.37791979)
   323b -> 330b  :     0.034522 (c=  0.18580118)

STATE 39:  E=   0.106927 au      2.910 eV    23467.7 cm**-1 <S**2> =   2.000000 Mult 3
   306a -> 324a  :     0.017840 (c= -0.13356498)
   307a -> 324a  :     0.061247 (c= -0.24748180)
   309a -> 324a  :     0.094283 (c=  0.30705603)
   323a -> 329a  :     0.022662 (c=  0.15053758)
   323a -> 330a  :     0.269874 (c= -0.51949403)
   306b -> 324b  :     0.017840 (c=  0.13356498)
   307b -> 324b  :     0.061247 (c=  0.24748180)
   309b -> 324b  :     0.094283 (c= -0.30705604)
   323b -> 329b  :     0.022662 (c=  0.15053758)
   323b -> 330b  :     0.269874 (c= -0.51949403)

STATE 40:  E=   0.108094 au      2.941 eV    23723.8 cm**-1 <S**2> =   0.000000 Mult 1
   306a -> 324a  :     0.072326 (c=  0.26893534)
   308a -> 324a  :     0.020382 (c=  0.14276684)
   309a -> 324a  :     0.288523 (c= -0.53714306)
   310a -> 324a  :     0.014732 (c=  0.12137715)
   311a -> 324a  :     0.020792 (c=  0.14419496)
   312a -> 324a  :     0.027278 (c=  0.16516177)
   323a -> 328a  :     0.021028 (c= -0.14501091)
   323a -> 330a  :     0.012186 (c=  0.11039004)
   306b -> 324b  :     0.072326 (c=  0.26893534)
   308b -> 324b  :     0.020382 (c=  0.14276684)
   309b -> 324b  :     0.288523 (c= -0.53714306)
   310b -> 324b  :     0.014732 (c=  0.12137715)
   311b -> 324b  :     0.020792 (c=  0.14419496)
   312b -> 324b  :     0.027278 (c=  0.16516177)
   323b -> 328b  :     0.021028 (c=  0.14501091)
   323b -> 330b  :     0.012186 (c= -0.11039004)

STATE 41:  E=   0.109170 au      2.971 eV    23960.0 cm**-1 <S**2> =   0.000000 Mult 1
   305a -> 324a  :     0.023110 (c=  0.15202058)
   307a -> 324a  :     0.198563 (c= -0.44560374)
   308a -> 324a  :     0.139907 (c=  0.37404120)
   323a -> 327a  :     0.057425 (c=  0.23963562)
   323a -> 329a  :     0.025159 (c=  0.15861513)
   305b -> 324b  :     0.023110 (c=  0.15202058)
   307b -> 324b  :     0.198563 (c= -0.44560374)
   308b -> 324b  :     0.139907 (c=  0.37404120)
   323b -> 327b  :     0.057425 (c= -0.23963562)
   323b -> 329b  :     0.025159 (c= -0.15861513)

STATE 42:  E=   0.110623 au      3.010 eV    24279.0 cm**-1 <S**2> =   2.000000 Mult 3
   306a -> 324a  :     0.158595 (c= -0.39824013)
   307a -> 324a  :     0.135209 (c=  0.36770821)
   308a -> 324a  :     0.133149 (c=  0.36489637)
   310a -> 324a  :     0.030763 (c=  0.17539308)
   306b -> 324b  :     0.158595 (c=  0.39824013)
   307b -> 324b  :     0.135209 (c= -0.36770821)
   308b -> 324b  :     0.133149 (c= -0.36489637)
   310b -> 324b  :     0.030763 (c= -0.17539308)

STATE 43:  E=   0.111201 au      3.026 eV    24405.9 cm**-1 <S**2> =   2.000000 Mult 3
   305a -> 324a  :     0.011520 (c= -0.10733302)
   306a -> 324a  :     0.207371 (c=  0.45538056)
   307a -> 324a  :     0.035923 (c=  0.18953280)
   308a -> 324a  :     0.106198 (c=  0.32587972)
   309a -> 324a  :     0.098581 (c=  0.31397620)
   312a -> 324a  :     0.010565 (c= -0.10278712)
   305b -> 324b  :     0.011520 (c=  0.10733302)
   306b -> 324b  :     0.207371 (c= -0.45538056)
   307b -> 324b  :     0.035923 (c= -0.18953280)
   308b -> 324b  :     0.106198 (c= -0.32587972)
   309b -> 324b  :     0.098581 (c= -0.31397620)
   312b -> 324b  :     0.010565 (c=  0.10278712)

STATE 44:  E=   0.111505 au      3.034 eV    24472.6 cm**-1 <S**2> =   0.000000 Mult 1
   307a -> 324a  :     0.062168 (c=  0.24933499)
   308a -> 324a  :     0.036922 (c= -0.19215136)
   323a -> 327a  :     0.193017 (c=  0.43933719)
   323a -> 329a  :     0.169308 (c=  0.41147085)
   307b -> 324b  :     0.062168 (c=  0.24933499)
   308b -> 324b  :     0.036922 (c= -0.19215136)
   323b -> 327b  :     0.193017 (c= -0.43933719)
   323b -> 329b  :     0.169308 (c= -0.41147085)

STATE 45:  E=   0.112092 au      3.050 eV    24601.3 cm**-1 <S**2> =   0.000000 Mult 1
   308a -> 324a  :     0.015497 (c= -0.12448562)
   309a -> 324a  :     0.055613 (c= -0.23582303)
   323a -> 328a  :     0.194425 (c=  0.44093674)
   323a -> 330a  :     0.187942 (c= -0.43352332)
   308b -> 324b  :     0.015497 (c= -0.12448562)
   309b -> 324b  :     0.055613 (c= -0.23582303)
   323b -> 328b  :     0.194425 (c= -0.44093674)
   323b -> 330b  :     0.187942 (c=  0.43352332)

STATE 46:  E=   0.113547 au      3.090 eV    24920.7 cm**-1 <S**2> =   0.000000 Mult 1
   306a -> 324a  :     0.028765 (c=  0.16960345)
   307a -> 324a  :     0.132372 (c=  0.36382904)
   308a -> 324a  :     0.221363 (c=  0.47049266)
   309a -> 324a  :     0.024180 (c=  0.15550064)
   323a -> 330a  :     0.073244 (c= -0.27063642)
   306b -> 324b  :     0.028765 (c=  0.16960345)
   307b -> 324b  :     0.132372 (c=  0.36382904)
   308b -> 324b  :     0.221363 (c=  0.47049266)
   309b -> 324b  :     0.024180 (c=  0.15550064)
   323b -> 330b  :     0.073244 (c=  0.27063642)

STATE 47:  E=   0.113804 au      3.097 eV    24977.0 cm**-1 <S**2> =   2.000000 Mult 3
   303a -> 324a  :     0.023427 (c=  0.15305956)
   304a -> 324a  :     0.076608 (c= -0.27678227)
   305a -> 324a  :     0.334524 (c= -0.57838050)
   306a -> 324a  :     0.022993 (c= -0.15163390)
   322a -> 326a  :     0.010770 (c=  0.10377791)
   303b -> 324b  :     0.023427 (c= -0.15305956)
   304b -> 324b  :     0.076608 (c=  0.27678227)
   305b -> 324b  :     0.334524 (c=  0.57838050)
   306b -> 324b  :     0.022993 (c=  0.15163390)
   322b -> 326b  :     0.010770 (c=  0.10377791)

STATE 48:  E=   0.114100 au      3.105 eV    25042.0 cm**-1 <S**2> =   0.000000 Mult 1
   306a -> 324a  :     0.032689 (c=  0.18080200)
   319a -> 324a  :     0.011222 (c= -0.10593239)
   323a -> 327a  :     0.142281 (c=  0.37720164)
   323a -> 328a  :     0.025382 (c=  0.15931701)
   323a -> 329a  :     0.210914 (c= -0.45925341)
   323a -> 330a  :     0.043519 (c=  0.20861315)
   306b -> 324b  :     0.032689 (c=  0.18080200)
   319b -> 324b  :     0.011222 (c= -0.10593239)
   323b -> 327b  :     0.142281 (c= -0.37720164)
   323b -> 328b  :     0.025382 (c= -0.15931701)
   323b -> 329b  :     0.210914 (c=  0.45925341)
   323b -> 330b  :     0.043519 (c= -0.20861315)

STATE 49:  E=   0.114131 au      3.106 eV    25048.9 cm**-1 <S**2> =   0.000000 Mult 1
   306a -> 324a  :     0.076520 (c= -0.27662244)
   308a -> 324a  :     0.011091 (c= -0.10531288)
   309a -> 324a  :     0.011760 (c= -0.10844333)
   323a -> 327a  :     0.039101 (c=  0.19774055)
   323a -> 328a  :     0.143043 (c= -0.37821001)
   323a -> 329a  :     0.058813 (c= -0.24251382)
   323a -> 330a  :     0.119663 (c= -0.34592273)
   306b -> 324b  :     0.076520 (c= -0.27662244)
   308b -> 324b  :     0.011091 (c= -0.10531288)
   309b -> 324b  :     0.011760 (c= -0.10844333)
   323b -> 327b  :     0.039101 (c= -0.19774055)
   323b -> 328b  :     0.143043 (c=  0.37821001)
   323b -> 329b  :     0.058813 (c=  0.24251382)
   323b -> 330b  :     0.119663 (c=  0.34592273)

STATE 50:  E=   0.114195 au      3.107 eV    25062.9 cm**-1 <S**2> =   2.000000 Mult 3
   304a -> 324a  :     0.235869 (c=  0.48566330)
   305a -> 324a  :     0.096405 (c= -0.31049103)
   306a -> 324a  :     0.012327 (c=  0.11102677)
   321a -> 325a  :     0.011321 (c=  0.10640162)
   322a -> 326a  :     0.083413 (c= -0.28881373)
   304b -> 324b  :     0.235869 (c= -0.48566330)
   305b -> 324b  :     0.096405 (c=  0.31049103)
   306b -> 324b  :     0.012327 (c= -0.11102677)
   321b -> 325b  :     0.011321 (c=  0.10640162)
   322b -> 326b  :     0.083413 (c= -0.28881373)

Storing amplitudes in GBW file ... 
... GBW file created

-----------------------------
TD-DFT/TDA-EXCITATION SPECTRA
-----------------------------

Center of mass = (  0.0015, -0.1357,  0.0028)
Generating CIS transition densities           ... done

UHF/UKS reference: multiplicity estimated based on rounded <S**2> value, use it judiciously!

----------------------------------------------------------------------------------------------------
                     ABSORPTION SPECTRUM VIA TRANSITION ELECTRIC DIPOLE MOMENTS    
----------------------------------------------------------------------------------------------------
     Transition      Energy     Energy  Wavelength fosc(D2)      D2        DX        DY        DZ   
                      (eV)      (cm-1)    (nm)                 (au**2)    (au)      (au)      (au)  
----------------------------------------------------------------------------------------------------
  0-1A  ->  1-3A   -0.851593   -6868.6     0.0   -0.000000000   0.00000  -0.00000  -0.00000  -0.00000
  0-1A  ->  2-3A    0.803788    6483.0  1542.5   0.000000000   0.00000   0.00000  -0.00000  -0.00000
  0-1A  ->  3-1A    1.433755   11564.0   864.8   0.210477763   5.99202   0.05226   2.44709  -0.03228
  0-1A  ->  4-3A    1.932584   15587.3   641.5   0.000000000   0.00000   0.00000   0.00000   0.00000
  0-1A  ->  5-3A    2.023190   16318.1   612.8   0.000000000   0.00000  -0.00000  -0.00000   0.00000
  0-1A  ->  6-3A    2.150255   17343.0   576.6   0.000000000   0.00000  -0.00000   0.00000   0.00000
  0-1A  ->  7-1A    2.156050   17389.7   575.1   1.700723760  32.19710   5.67398  -0.01045  -0.05434
  0-1A  ->  8-3A    2.159388   17416.6   574.2   0.000000000   0.00000   0.00000   0.00000  -0.00000
  0-1A  ->  9-3A    2.198245   17730.0   564.0   0.000000000   0.00000  -0.00000   0.00000   0.00000
  0-1A  -> 10-1A    2.236257   18036.6   554.4   10.158776248 185.42214  13.61642  -0.04276  -0.11584
  0-1A  -> 11-3A    2.313302   18658.0   536.0   0.000000000   0.00000  -0.00000   0.00000  -0.00000
  0-1A  -> 12-1A    2.329013   18784.8   532.3   0.084823783   1.48658  -0.27315  -1.13202  -0.36124
  0-1A  -> 13-3A    2.353010   18978.3   526.9   0.000000000   0.00000  -0.00000  -0.00000  -0.00000
  0-1A  -> 14-1A    2.361483   19046.6   525.0   0.031530911   0.54500  -0.03615  -0.15853  -0.72011
  0-1A  -> 15-1A    2.362522   19055.0   524.8   0.078858635   1.36243  -0.49380   0.57204  -0.88958
  0-1A  -> 16-3A    2.364770   19073.2   524.3   0.000000000   0.00000  -0.00000   0.00000   0.00000
  0-1A  -> 17-3A    2.375711   19161.4   521.9   0.000000000   0.00000   0.00000   0.00000   0.00000
  0-1A  -> 18-3A    2.384480   19232.1   520.0   0.000000000   0.00000   0.00000  -0.00000  -0.00000
  0-1A  -> 19-1A    2.437941   19663.3   508.6   0.082799385   1.38626   0.07174   1.14355  -0.27094
  0-1A  -> 20-1A    2.460457   19844.9   503.9   0.049269525   0.81734   0.89940  -0.08931   0.02099
  0-1A  -> 21-1A    2.497869   20146.7   496.4   0.014963683   0.24452   0.07925  -0.08204   0.48115
  0-1A  -> 22-1A    2.500127   20164.9   495.9   0.022562834   0.36836  -0.24837   0.23271   0.50251
  0-1A  -> 23-3A    2.510920   20251.9   493.8   0.000000000   0.00000   0.00000   0.00000   0.00000
  0-1A  -> 24-3A    2.551572   20579.8   485.9   0.000000000   0.00000  -0.00000   0.00000   0.00000
  0-1A  -> 25-1A    2.632738   21234.5   470.9   0.195649731   3.03329   0.03598   1.74124   0.00940
  0-1A  -> 26-3A    2.678983   21607.5   462.8   0.000000000   0.00000   0.00000   0.00000   0.00000
  0-1A  -> 27-3A    2.722607   21959.3   455.4   0.000000000   0.00000   0.00000  -0.00000  -0.00000
  0-1A  -> 28-1A    2.728425   22006.2   454.4   2.416949112  36.15741  -6.01291  -0.02321   0.04193
  0-1A  -> 29-3A    2.740028   22099.8   452.5   0.000000000   0.00000   0.00000  -0.00000  -0.00000
  0-1A  -> 30-1A    2.750209   22181.9   450.8   0.300108544   4.45404   2.08779   0.30668  -0.03380
  0-1A  -> 31-3A    2.758409   22248.1   449.5   0.000000000   0.00000   0.00000   0.00000   0.00000
  0-1A  -> 32-1A    2.806807   22638.4   441.7   0.231943137   3.37296  -1.81685  -0.26288   0.05380
  0-1A  -> 33-3A    2.844414   22941.8   435.9   0.000000000   0.00000  -0.00000  -0.00000  -0.00000
  0-1A  -> 34-3A    2.849678   22984.2   435.1   0.000000000   0.00000   0.00000  -0.00000   0.00000
  0-1A  -> 35-1A    2.851801   23001.3   434.8   0.071851869   1.02840  -0.98916   0.21768  -0.05079
  0-1A  -> 36-3A    2.867515   23128.1   432.4   0.000000000   0.00000   0.00000  -0.00000   0.00000
  0-1A  -> 37-1A    2.868183   23133.5   432.3   0.639849390   9.10569  -3.01532   0.11256   0.02891
  0-1A  -> 38-3A    2.903187   23415.8   427.1   0.000000000   0.00000  -0.00000   0.00000   0.00000
  0-1A  -> 39-3A    2.909619   23467.7   426.1   0.000000000   0.00000  -0.00000   0.00000   0.00000
  0-1A  -> 40-1A    2.941378   23723.8   421.5   0.008859821   0.12295  -0.31967  -0.11735  -0.08358
  0-1A  -> 41-1A    2.970660   23960.0   417.4   0.232874182   3.19971  -1.78704  -0.07456  -0.02556
  0-1A  -> 42-3A    3.010211   24279.0   411.9   0.000000000   0.00000  -0.00000   0.00000  -0.00000
  0-1A  -> 43-3A    3.025940   24405.9   409.7   0.000000000   0.00000   0.00000  -0.00000   0.00000
  0-1A  -> 44-1A    3.034214   24472.6   408.6   0.127303801   1.71253  -1.18135   0.56117  -0.04517
  0-1A  -> 45-1A    3.050169   24601.3   406.5   0.100258799   1.34165   0.15531   0.31690   1.10322
  0-1A  -> 46-1A    3.089775   24920.7   401.3   0.002757819   0.03643   0.10243   0.14333  -0.07346
  0-1A  -> 47-3A    3.096755   24977.0   400.4   0.000000000   0.00000  -0.00000  -0.00000  -0.00000
  0-1A  -> 48-1A    3.104806   25042.0   399.3   0.044708577   0.58776  -0.27895   0.27582   0.65869
  0-1A  -> 49-1A    3.105666   25048.9   399.2   0.202002115   2.65487  -0.22006   0.17404  -1.60504
  0-1A  -> 50-3A    3.107403   25062.9   399.0   0.000000000   0.00000   0.00000   0.00000   0.00000

----------------------------------------------------------------------------------------------------
                     ABSORPTION SPECTRUM VIA TRANSITION VELOCITY DIPOLE MOMENTS    
----------------------------------------------------------------------------------------------------
     Transition      Energy     Energy  Wavelength fosc(P2)      P2        PX        PY        PZ   
                      (eV)      (cm-1)    (nm)                 (au**2)    (au)      (au)      (au)  
----------------------------------------------------------------------------------------------------
  0-1A  ->  1-3A   -0.851593   -6868.6     0.0   -0.000000000   0.00000  -0.00000  -0.00000  -0.00000
  0-1A  ->  2-3A    0.803788    6483.0  1542.5   0.000000000   0.00000  -0.00000  -0.00000   0.00000
  0-1A  ->  3-1A    1.433755   11564.0   864.8   0.009509014   0.00075   0.00175   0.02732  -0.00153
  0-1A  ->  4-3A    1.932584   15587.3   641.5   0.000000000   0.00000  -0.00000   0.00000  -0.00000
  0-1A  ->  5-3A    2.023190   16318.1   612.8   0.000000000   0.00000  -0.00000   0.00000   0.00000
  0-1A  ->  6-3A    2.150255   17343.0   576.6   0.000000000   0.00000  -0.00000  -0.00000   0.00000
  0-1A  ->  7-1A    2.156050   17389.7   575.1   0.263038230   0.03126   0.17661   0.00829  -0.00125
  0-1A  ->  8-3A    2.159388   17416.6   574.2   0.000000000   0.00000   0.00000   0.00000   0.00000
  0-1A  ->  9-3A    2.198245   17730.0   564.0   0.000000000   0.00000  -0.00000  -0.00000   0.00000
  0-1A  -> 10-1A    2.236257   18036.6   554.4   0.688390891   0.08486   0.29129  -0.00237  -0.00098
  0-1A  -> 11-3A    2.313302   18658.0   536.0   0.000000000   0.00000  -0.00000  -0.00000  -0.00000
  0-1A  -> 12-1A    2.329013   18784.8   532.3   0.000996749   0.00013   0.00262   0.01027   0.00395
  0-1A  -> 13-3A    2.353010   18978.3   526.9   0.000000000   0.00000  -0.00000   0.00000   0.00000
  0-1A  -> 14-1A    2.361483   19046.6   525.0   0.003485687   0.00045  -0.01353  -0.01618  -0.00296
  0-1A  -> 15-1A    2.362522   19055.0   524.8   0.001571206   0.00020  -0.01006   0.00957  -0.00343
  0-1A  -> 16-3A    2.364770   19073.2   524.3   0.000000000   0.00000   0.00000   0.00000   0.00000
  0-1A  -> 17-3A    2.375711   19161.4   521.9   0.000000000   0.00000   0.00000  -0.00000   0.00000
  0-1A  -> 18-3A    2.384480   19232.1   520.0   0.000000000   0.00000   0.00000  -0.00000  -0.00000
  0-1A  -> 19-1A    2.437941   19663.3   508.6   0.006458469   0.00087   0.00019  -0.02709  -0.01158
  0-1A  -> 20-1A    2.460457   19844.9   503.9   0.011008322   0.00149   0.03855   0.00248   0.00103
  0-1A  -> 21-1A    2.497869   20146.7   496.4   0.011129357   0.00153  -0.00596  -0.03272   0.02065
  0-1A  -> 22-1A    2.500127   20164.9   495.9   0.012651703   0.00174  -0.02588   0.02304   0.02330
  0-1A  -> 23-3A    2.510920   20251.9   493.8   0.000000000   0.00000  -0.00000  -0.00000   0.00000
  0-1A  -> 24-3A    2.551572   20579.8   485.9   0.000000000   0.00000  -0.00000   0.00000  -0.00000
  0-1A  -> 25-1A    2.632738   21234.5   470.9   0.006320035   0.00092  -0.00179  -0.02966  -0.00587
  0-1A  -> 26-3A    2.678983   21607.5   462.8   0.000000000   0.00000   0.00000  -0.00000  -0.00000
  0-1A  -> 27-3A    2.722607   21959.3   455.4   0.000000000   0.00000  -0.00000   0.00000   0.00000
  0-1A  -> 28-1A    2.728425   22006.2   454.4   0.018984245   0.00286   0.05210  -0.01187   0.00010
  0-1A  -> 29-3A    2.740028   22099.8   452.5   0.000000000   0.00000  -0.00000   0.00000   0.00000
  0-1A  -> 30-1A    2.750209   22181.9   450.8   0.011023420   0.00167  -0.04061  -0.00353   0.00310
  0-1A  -> 31-3A    2.758409   22248.1   449.5   0.000000000   0.00000  -0.00000  -0.00000   0.00000
  0-1A  -> 32-1A    2.806807   22638.4   441.7   0.012089931   0.00187  -0.04232   0.00594  -0.00666
  0-1A  -> 33-3A    2.844414   22941.8   435.9   0.000000000   0.00000  -0.00000   0.00000   0.00000
  0-1A  -> 34-3A    2.849678   22984.2   435.1   0.000000000   0.00000  -0.00000   0.00000  -0.00000
  0-1A  -> 35-1A    2.851801   23001.3   434.8   0.002655510   0.00042   0.00530  -0.01962   0.00214
  0-1A  -> 36-3A    2.867515   23128.1   432.4   0.000000000   0.00000   0.00000   0.00000  -0.00000
  0-1A  -> 37-1A    2.868183   23133.5   432.3   0.068973770   0.01091  -0.10410  -0.00825   0.00022
  0-1A  -> 38-3A    2.903187   23415.8   427.1   0.000000000   0.00000  -0.00000  -0.00000   0.00000
  0-1A  -> 39-3A    2.909619   23467.7   426.1   0.000000000   0.00000   0.00000   0.00000  -0.00000
  0-1A  -> 40-1A    2.941378   23723.8   421.5   0.001153368   0.00019  -0.00088   0.00002   0.01365
  0-1A  -> 41-1A    2.970660   23960.0   417.4   0.001063846   0.00017  -0.00625  -0.01042  -0.00516
  0-1A  -> 42-3A    3.010211   24279.0   411.9   0.000000000   0.00000  -0.00000   0.00000  -0.00000
  0-1A  -> 43-3A    3.025940   24405.9   409.7   0.000000000   0.00000  -0.00000  -0.00000  -0.00000
  0-1A  -> 44-1A    3.034214   24472.6   408.6   0.012365328   0.00207   0.00851   0.04463   0.00195
  0-1A  -> 45-1A    3.050169   24601.3   406.5   0.002408472   0.00040   0.01930  -0.00306   0.00480
  0-1A  -> 46-1A    3.089775   24920.7   401.3   0.003675986   0.00063   0.02498  -0.00092  -0.00118
  0-1A  -> 47-3A    3.096755   24977.0   400.4   0.000000000   0.00000  -0.00000   0.00000  -0.00000
  0-1A  -> 48-1A    3.104806   25042.0   399.3   0.005050789   0.00086  -0.01743  -0.02361  -0.00178
  0-1A  -> 49-1A    3.105666   25048.9   399.2   0.000483436   0.00008   0.00488  -0.00570   0.00514
  0-1A  -> 50-3A    3.107403   25062.9   399.0   0.000000000   0.00000   0.00000  -0.00000   0.00000

------------------------------------------------------------------------------------------
                     CD SPECTRUM VIA TRANSITION ELECTRIC DIPOLE MOMENTS    
------------------------------------------------------------------------------------------
     Transition      Energy     Energy  Wavelength    R        MX        MY        MZ   
                      (eV)      (cm-1)    (nm)   (1e40*cgs)   (au)      (au)      (au)  
------------------------------------------------------------------------------------------
  0-1A  ->  1-3A   -0.851593   -6868.6     0.0    0.00000  -0.00000   0.00000  -0.00000
  0-1A  ->  2-3A    0.803788    6483.0  1542.5   -0.00000   0.00000   0.00000   0.00000
  0-1A  ->  3-1A    1.433755   11564.0   864.8    5.26518  -0.00874  -0.00396   0.03143
  0-1A  ->  4-3A    1.932584   15587.3   641.5    0.00000   0.00000   0.00000  -0.00000
  0-1A  ->  5-3A    2.023190   16318.1   612.8    0.00000   0.00000   0.00000   0.00000
  0-1A  ->  6-3A    2.150255   17343.0   576.6    0.00000   0.00000   0.00000   0.00000
  0-1A  ->  7-1A    2.156050   17389.7   575.1   26.76723  -0.01551  -0.06264  -0.56253
  0-1A  ->  8-3A    2.159388   17416.6   574.2   -0.00000  -0.00000  -0.00000  -0.00000
  0-1A  ->  9-3A    2.198245   17730.0   564.0    0.00000   0.00000   0.00000   0.00000
  0-1A  -> 10-1A    2.236257   18036.6   554.4  358.98234  -0.06370  -0.02550  -0.90506
  0-1A  -> 11-3A    2.313302   18658.0   536.0    0.00000   0.00000  -0.00000   0.00000
  0-1A  -> 12-1A    2.329013   18784.8   532.3   -1.72351  -0.00170  -0.03164   0.09031
  0-1A  -> 13-3A    2.353010   18978.3   526.9   -0.00000   0.00000   0.00000  -0.00000
  0-1A  -> 14-1A    2.361483   19046.6   525.0  -15.82520  -0.01700   0.01796  -0.04971
  0-1A  -> 15-1A    2.362522   19055.0   524.8  -46.18566   0.02126   0.01611  -0.11157
  0-1A  -> 16-3A    2.364770   19073.2   524.3    0.00000   0.00000  -0.00000  -0.00000
  0-1A  -> 17-3A    2.375711   19161.4   521.9    0.00000   0.00000  -0.00000  -0.00000
  0-1A  -> 18-3A    2.384480   19232.1   520.0   -0.00000   0.00000  -0.00000  -0.00000
  0-1A  -> 19-1A    2.437941   19663.3   508.6   37.38035  -0.00632  -0.06869   0.00103
  0-1A  -> 20-1A    2.460457   19844.9   503.9  -59.69694   0.14809   0.04100  -0.13827
  0-1A  -> 21-1A    2.497869   20146.7   496.4   47.04056   0.06328  -0.03944  -0.22452
  0-1A  -> 22-1A    2.500127   20164.9   495.9   37.13688   0.03902   0.04048  -0.15621
  0-1A  -> 23-3A    2.510920   20251.9   493.8   -0.00000   0.00000   0.00000  -0.00000
  0-1A  -> 24-3A    2.551572   20579.8   485.9   -0.00000  -0.00000  -0.00000   0.00000
  0-1A  -> 25-1A    2.632738   21234.5   470.9  -17.15232  -0.01458   0.02092   0.05104
  0-1A  -> 26-3A    2.678983   21607.5   462.8    0.00000  -0.00000   0.00000  -0.00000
  0-1A  -> 27-3A    2.722607   21959.3   455.4   -0.00000   0.00000  -0.00000   0.00000
  0-1A  -> 28-1A    2.728425   22006.2   454.4  -72.51356  -0.02731   0.06098  -0.21417
  0-1A  -> 29-3A    2.740028   22099.8   452.5    0.00000   0.00000  -0.00000   0.00000
  0-1A  -> 30-1A    2.750209   22181.9   450.8  -30.42737   0.02536   0.05856   0.18829
  0-1A  -> 31-3A    2.758409   22248.1   449.5   -0.00000   0.00000   0.00000   0.00000
  0-1A  -> 32-1A    2.806807   22638.4   441.7   26.44140   0.03549   0.00826   0.19656
  0-1A  -> 33-3A    2.844414   22941.8   435.9    0.00000   0.00000   0.00000   0.00000
  0-1A  -> 34-3A    2.849678   22984.2   435.1    0.00000  -0.00000  -0.00000   0.00000
  0-1A  -> 35-1A    2.851801   23001.3   434.8    9.04195   0.03259   0.02731  -0.14007
  0-1A  -> 36-3A    2.867515   23128.1   432.4    0.00000  -0.00000  -0.00000  -0.00000
  0-1A  -> 37-1A    2.868183   23133.5   432.3   59.80848   0.04518   0.00395   0.30904
  0-1A  -> 38-3A    2.903187   23415.8   427.1   -0.00000  -0.00000   0.00000   0.00000
  0-1A  -> 39-3A    2.909619   23467.7   426.1    0.00000  -0.00000  -0.00000   0.00000
  0-1A  -> 40-1A    2.941378   23723.8   421.5    8.61665   0.00054   0.00282   0.21266
  0-1A  -> 41-1A    2.970660   23960.0   417.4    1.32840  -0.00260   0.10415  -0.01174
  0-1A  -> 42-3A    3.010211   24279.0   411.9    0.00000   0.00000   0.00000  -0.00000
  0-1A  -> 43-3A    3.025940   24405.9   409.7    0.00000  -0.00000   0.00000   0.00000
  0-1A  -> 44-1A    3.034214   24472.6   408.6   41.11686  -0.00261  -0.17075  -0.12222
  0-1A  -> 45-1A    3.050169   24601.3   406.5  -187.46287  -0.04791  -0.01097   0.37032
  0-1A  -> 46-1A    3.089775   24920.7   401.3   20.10576  -0.11675  -0.01003   0.39819
  0-1A  -> 47-3A    3.096755   24977.0   400.4    0.00000  -0.00000  -0.00000   0.00000
  0-1A  -> 48-1A    3.104806   25042.0   399.3  -18.85265   0.04386   0.26237  -0.03058
  0-1A  -> 49-1A    3.105666   25048.9   399.2  100.83658  -0.05928   0.09788   0.15200
  0-1A  -> 50-3A    3.107403   25062.9   399.0    0.00000   0.00000   0.00000  -0.00000

------------------------------------------------------------------------------------------
                     CD SPECTRUM VIA TRANSITION VELOCITY DIPOLE MOMENTS    
------------------------------------------------------------------------------------------
     Transition      Energy     Energy  Wavelength    R        MX        MY        MZ   
                      (eV)      (cm-1)    (nm)   (1e40*cgs)   (au)      (au)      (au)  
------------------------------------------------------------------------------------------
  0-1A  ->  1-3A   -0.851593   -6868.6     0.0    0.00000  -0.00000   0.00000  -0.00000
  0-1A  ->  2-3A    0.803788    6483.0  1542.5   -0.00000   0.00000   0.00000   0.00000
  0-1A  ->  3-1A    1.433755   11564.0   864.8   -1.53545  -0.00874  -0.00396   0.03143
  0-1A  ->  4-3A    1.932584   15587.3   641.5    0.00000   0.00000   0.00000  -0.00000
  0-1A  ->  5-3A    2.023190   16318.1   612.8   -0.00000   0.00000   0.00000   0.00000
  0-1A  ->  6-3A    2.150255   17343.0   576.6   -0.00000   0.00000   0.00000   0.00000
  0-1A  ->  7-1A    2.156050   17389.7   575.1  -15.21527  -0.01551  -0.06264  -0.56253
  0-1A  ->  8-3A    2.159388   17416.6   574.2   -0.00000  -0.00000  -0.00000  -0.00000
  0-1A  ->  9-3A    2.198245   17730.0   564.0   -0.00000   0.00000   0.00000   0.00000
  0-1A  -> 10-1A    2.236257   18036.6   554.4  -101.00946  -0.06370  -0.02550  -0.90506
  0-1A  -> 11-3A    2.313302   18658.0   536.0    0.00000   0.00000  -0.00000   0.00000
  0-1A  -> 12-1A    2.329013   18784.8   532.3    0.14910  -0.00170  -0.03164   0.09031
  0-1A  -> 13-3A    2.353010   18978.3   526.9   -0.00000   0.00000   0.00000  -0.00000
  0-1A  -> 14-1A    2.361483   19046.6   525.0    0.47031  -0.01700   0.01796  -0.04971
  0-1A  -> 15-1A    2.362522   19055.0   524.8    1.75307   0.02126   0.01611  -0.11157
  0-1A  -> 16-3A    2.364770   19073.2   524.3   -0.00000   0.00000  -0.00000  -0.00000
  0-1A  -> 17-3A    2.375711   19161.4   521.9   -0.00000   0.00000  -0.00000  -0.00000
  0-1A  -> 18-3A    2.384480   19232.1   520.0    0.00000   0.00000  -0.00000  -0.00000
  0-1A  -> 19-1A    2.437941   19663.3   508.6    9.72362  -0.00632  -0.06869   0.00103
  0-1A  -> 20-1A    2.460457   19844.9   503.9   29.54736   0.14809   0.04100  -0.13827
  0-1A  -> 21-1A    2.497869   20146.7   496.4  -19.11918   0.06328  -0.03944  -0.22452
  0-1A  -> 22-1A    2.500127   20164.9   495.9  -19.07460   0.03902   0.04048  -0.15621
  0-1A  -> 23-3A    2.510920   20251.9   493.8   -0.00000   0.00000   0.00000  -0.00000
  0-1A  -> 24-3A    2.551572   20579.8   485.9   -0.00000  -0.00000  -0.00000   0.00000
  0-1A  -> 25-1A    2.632738   21234.5   470.9   -4.35654  -0.01458   0.02092   0.05104
  0-1A  -> 26-3A    2.678983   21607.5   462.8    0.00000  -0.00000   0.00000  -0.00000
  0-1A  -> 27-3A    2.722607   21959.3   455.4   -0.00000   0.00000  -0.00000   0.00000
  0-1A  -> 28-1A    2.728425   22006.2   454.4  -10.18955  -0.02731   0.06098  -0.21417
  0-1A  -> 29-3A    2.740028   22099.8   452.5   -0.00000   0.00000  -0.00000   0.00000
  0-1A  -> 30-1A    2.750209   22181.9   450.8   -3.04580   0.02536   0.05856   0.18829
  0-1A  -> 31-3A    2.758409   22248.1   449.5   -0.00000   0.00000   0.00000   0.00000
  0-1A  -> 32-1A    2.806807   22638.4   441.7  -12.62508   0.03549   0.00826   0.19656
  0-1A  -> 33-3A    2.844414   22941.8   435.9    0.00000   0.00000   0.00000   0.00000
  0-1A  -> 34-3A    2.849678   22984.2   435.1   -0.00000  -0.00000  -0.00000   0.00000
  0-1A  -> 35-1A    2.851801   23001.3   434.8   -2.97891   0.03259   0.02731  -0.14007
  0-1A  -> 36-3A    2.867515   23128.1   432.4   -0.00000  -0.00000  -0.00000  -0.00000
  0-1A  -> 37-1A    2.868183   23133.5   432.3  -20.87407   0.04518   0.00395   0.30904
  0-1A  -> 38-3A    2.903187   23415.8   427.1    0.00000  -0.00000   0.00000   0.00000
  0-1A  -> 39-3A    2.909619   23467.7   426.1   -0.00000  -0.00000  -0.00000   0.00000
  0-1A  -> 40-1A    2.941378   23723.8   421.5   12.65568   0.00054   0.00282   0.21266
  0-1A  -> 41-1A    2.970660   23960.0   417.4   -4.35333  -0.00260   0.10415  -0.01174
  0-1A  -> 42-3A    3.010211   24279.0   411.9   -0.00000   0.00000   0.00000  -0.00000
  0-1A  -> 43-3A    3.025940   24405.9   409.7   -0.00000  -0.00000   0.00000   0.00000
  0-1A  -> 44-1A    3.034214   24472.6   408.6  -33.32080  -0.00261  -0.17075  -0.12222
  0-1A  -> 45-1A    3.050169   24601.3   406.5    3.72578  -0.04791  -0.01097   0.37032
  0-1A  -> 46-1A    3.089775   24920.7   401.3  -14.01887  -0.11675  -0.01003   0.39819
  0-1A  -> 47-3A    3.096755   24977.0   400.4   -0.00000  -0.00000  -0.00000   0.00000
  0-1A  -> 48-1A    3.104806   25042.0   399.3  -28.52834   0.04386   0.26237  -0.03058
  0-1A  -> 49-1A    3.105666   25048.9   399.2   -0.27641  -0.05928   0.09788   0.15200
  0-1A  -> 50-3A    3.107403   25062.9   399.0   -0.00000   0.00000   0.00000  -0.00000

Total run time:      411.011 sec

           *** ORCA-CIS/TD-DFT FINISHED WITHOUT ERROR ***
-----------------------
CIS/TD-DFT TOTAL ENERGY
-----------------------

    E(SCF)  =  -9632.952948814 Eh
    DE(CIS) =     -0.031295485 Eh (Root  1)
    ----------------------------- ---------
    E(tot)  =  -9632.984244299 Eh


Maximum memory used throughout the entire CIS-calculation: 14871.1 MB
=> NOW LEAVING ORCA_CIS


-------------------------------------------------------------------------------
                          DFT DISPERSION CORRECTION                            
                                                                               
                                DFTD4 V3.4.0                                   
-------------------------------------------------------------------------------
The PBE0 functional is recognized
Active option DFTDOPT                   ...         5   

-------------------------   ----------------
Dispersion correction           -0.200869298
-------------------------   ----------------


-------------------------   --------------------
FINAL SINGLE POINT ENERGY     -9633.185113597714
-------------------------   --------------------



           ************************************************************
           *        Program running with 24 parallel MPI-processes    *
           *              working on a common directory               *
           ************************************************************

------------------------------------------------------------------------------
                              ORCA PROPERTY CALCULATIONS
------------------------------------------------------------------------------

GBWName                                 ... TPA-Me.gbw
Number of atoms                         ...     99
Number of basis functions               ...   1225
Max core memory                         ...  20000 MB

Electric properties:
Dipole moment                           ... YES
Quadrupole moment                       ...  NO
Static polarizability (Dipole/Dipole)   ...  NO
Static polarizability (Dipole/Quad.)    ...  NO
Static polarizability (Quad./Quad.)     ...  NO
Static polarizability (Velocity)        ...  NO
Static hyperpolarizability              ...  NO

Atomic electric properties:
Dipole moment                           ...  NO
Quadrupole moment                       ...  NO
Static polarizability                   ...  NO

Choice of electric origin               ... Center of mass
Position of electric origin             ...     0.001522    -0.135741     0.002765

General magnetic properties:
Magnetizability                         ...  NO

EPR properties:
g-Tensor (aka g-matrix)                 ...  NO
Zero-Field splitting spin-orbit         ...  NO
Zero-field splitting spin-spin          ...  NO
Hyperfine couplings                     ...  NO (   0 nuclei)
Quadrupole couplings                    ...  NO (   0 nuclei)
Contact density                         ...  NO (   0 nuclei)

NMR properties:
Chemical shifts                         ...  NO (   0 nuclei)
Spin-rotation constants                 ...  NO (   0 nuclei)
Spin-spin couplings                     ...  NO (   0 nuclei,    0 pairs)

Choice of magnetic origin               ... GIAO
Position of magnetic origin             ...     0.000000     0.000000     0.000000

Properties with geometric perturbations:
SCF Hessian                             ...  NO
IR spectrum                             ...  NO
VCD spectrum                            ...  NO
X-ray spectroscopy properties:
SCF XES/XAS/RIXS spectra                ...  NO

SCF SOC stabilization energy            ...  NO
Diagonal Born-Oppenheimer correction    ...  NO

-------------
DIPOLE MOMENT
-------------

Method             : SCF
Type of density    : Electron Density
Multiplicity       :   1
Irrep              :   0
Energy             : -9632.9529488144653442 Eh
Basis              : AO
                                X                 Y                 Z
Electronic contribution:      0.643793517     -85.597670061       1.307638850
Nuclear contribution   :     -0.986226327      87.960374796      -1.791758582
                        -----------------------------------------
Total Dipole Moment    :     -0.342432811       2.362704735      -0.484119732
                        -----------------------------------------
Magnitude (a.u.)       :      2.435981488
Magnitude (Debye)      :      6.191772875



--------------------
Rotational spectrum 
--------------------
 
Rotational constants in cm-1:             0.000954             0.000171             0.000165 
Rotational constants in MHz :            28.596406             5.125553             4.949088 

Dipole components along the rotational axes: 
x,y,z [a.u.] :    -0.342162     2.363460    -0.480614 
x,y,z [Debye]:    -0.869705     6.007437    -1.221624 

 

Dipole moment calculation done in   0.1 sec 

Maximum memory used throughout the entire PROP-calculation: 120.9 MB

--------------------------------
SUGGESTED CITATIONS FOR THIS RUN
--------------------------------

Below you find a list of papers that are relevant to this ORCA run
We neither can nor want to force you to cite these papers, but we appreciate if you do
You receive ORCA, which is the product of decades of hard work by many enthusiastic individuals, for free
The only thing we kindly ask in return is that you cite our papers,
We deeply appreciate it, if you show your appreciation for ORCA by not just citing the generic ORCA reference.

Please note that relegating all ORCA citations to the supporting information does *not* help us.
SI sections are not indexed - citations you put there will not count into any citation statistics
But we need these citations in order to attract the funding resources that allow us to do what we are doing

Therefore, if you are a happy ORCA user, please consider citing a few of the papers listed below in the main body of your paper

In addition to the list printed below, the program has created the file TPA-Me.bibtex that contains the list in bibtex format
You can import this file easily into all common literature databanks and citation aid programs

It goes without saying that in many instances, there are alternative algorithms to achieve similar
results as the ones you have gotten from ORCA. It is, of course, also the case that in some instances
ORCA just re-implements algorithms worked out by others. We are fully aware of that and we are also
fully appreciative of our colleagues work. Hence this citation list should not be read as indicating
that the listed papers, which are focused on our own work, are the only ones worth citing. It simply
meant to make it easier for users to cite ORCA specific papers. It is not a substitute for doing your
own literature research and citing the relevant literature in a scientifically appropriate manner.

List of essential papers. We consider these as the minimum necessary citations

  1. Neese, F.
     Software update: the ORCA program system, version 6.0
     WIRES Comput. Molec. Sci. 2025 15(1), e70019
     doi.org/10.1002/wcms.70019

List of papers to cite with high priority. The work reported in these papers was absolutely
necessary for this run to complete.
Our perspective: the developers of density functionals and basis sets usually get cited in chemistry papers
Good! But without the algorithms to do something with them, the functionals or basis sets would not do anything.
Hence, in our opinion, the algorithm design and method developments papers are equally worthy of getting cited

  1. Neese, F.; Olbrich, G.
     Efficient use of the resolution of the identity approximation in time-dependent density functional calculations with hybrid density functionals
     Chem. Phys. Lett. 2002 362 , 170-178
     doi.org/10.1016/s0009-2614(02)01053-9
  2. Neese, F.
     An improvement of the resolution of the identity approximation for the formation of the Coulomb matrix
     J. Comp. Chem. 2003 24(14), 1740-1747
     doi.org/10.1002/jcc.10318
  3. Neese, F.
     Definition of corresponding orbitals and the diradical character in broken symmetry DFT calculations on spin coupled systems
     J. Phys. Chem. Solids 2004 65(4), 781-785
     doi.org/10.1016/j.jpcs.2003.11.015
  4. Neese, F.; Wennmohs, F.; Hansen, A.; Becker, U.
     Efficient, approximate and parallel Hartree-Fock and hybrid DFT calculations. A 'chain-of-spheres' algorithm for the Hartree-Fock exchange
     Chem. Phys. 2009 356(1-3), 98-109
     doi.org/10.1016/j.chemphys.2008.10.036
  5. Caldeweyher, E.; Bannwarth, C.; Grimme, S.
     Extension of the D3 dispersion coefficient model
     J. Chem. Phys. 2017 147 , 034112
     doi.org/10.1063/1.4993215
  6. Caldeweyher, E.; Ehlert, S.; Hansen, A.; Neugebauer, H.; Spicher, S.; Bannwarth, C.; Grimme, S.
     A generally applicable atomic-charge dependent London dispersion correction
     J. Chem. Phys. 2019 150 , 154122
     doi.org/10.1063/1.5090222
  7. Helmich-Paris, B.; de Souza, B.; Neese, F.; Izsák, R.
     An improved chain of spheres for exchange algorithm
     J. Chem. Phys. 2021 155(10), 104109
     doi.org/10.1063/5.0058766
  8. Neese, F.
     The SHARK Integral Generation and Digestion System
     J. Comp. Chem. 2022 44(3), 381
     doi.org/10.1002/jcc.26942

List of suggested additional citations. These are papers that are important in the 'surrounding' of 
of this run, or papers that preceded the highly important papers. If you like your results we are grateful for a citation.

  1. Izsak, R.; Neese, F.
     An overlap fitted chain of spheres exchange method
     J. Chem. Phys. 2011 135 , 144105
     doi.org/10.1063/1.3646921
  2. Izsak, R.; Hansen, A.; Neese, F.
     The resolution of identity and chain of spheres approximations for the LPNO-CCSD singles Fock term
     Molec. Phys. 2012 110 , 2413-2417
     doi.org/10.1080/00268976.2012.687466
  3. Neese, F.
     The ORCA program system
     WIRES Comput. Molec. Sci. 2012 2(1), 73-78
     doi.org/10.1002/wcms.81
  4. Izsak, R.; Neese, F.; Klopper, W.
     Robust fitting techniques in the chain of spheres approximation to the Fock exchange: The role of the complementary space
     J. Chem. Phys. 2013 139 , 
     doi.org/10.1063/1.4819264
  5. Neese, F.
     Software update: the ORCA program system, version 4.0
     WIRES Comput. Molec. Sci. 2018 8(1), 1-6
     doi.org/10.1002/wcms.1327
  6. Neese, F.; Wennmohs, F.; Becker, U.; Riplinger, C.
     The ORCA quantum chemistry program package
     J. Chem. Phys. 2020 152(22), 224108
     doi.org/10.1063/5.0004608
  7. Neese, F.
     Software update: The ORCA program system—Version 5.0
     WIRES Comput. Molec. Sci. 2022 12(1), e1606
     doi.org/10.1002/wcms.1606

List of optional additional citations

  1. Neese, F.
     Approximate second-order SCF convergence for spin unrestricted wavefunctions
     Chem. Phys. Lett. 2000 325(1-3), 93-98
     doi.org/10.1016/s0009-2614(00)00662-x

Timings for individual modules:

Sum of individual times          ...      563.944 sec (=   9.399 min)
Startup calculation              ...        9.921 sec (=   0.165 min)   1.8 %
SCF iterations                   ...      133.413 sec (=   2.224 min)  23.7 %
Property integrals               ...        3.333 sec (=   0.056 min)   0.6 %
Property calculations            ...        3.103 sec (=   0.052 min)   0.6 %
CIS module                       ...      414.173 sec (=   6.903 min)  73.4 %
                             ****ORCA TERMINATED NORMALLY****
TOTAL RUN TIME: 0 days 0 hours 9 minutes 29 seconds 55 msec
