66
TTM-TTM (Chang, 2024) Broken Symmetry optimised
Cl     3.226342    4.836818    8.822853
Cl    -2.316802    3.213689   10.327581
Cl     0.214796    3.868560   13.343015
Cl     2.854082    1.515001   11.131350
Cl     0.859255    1.803458    7.779254
Cl    -0.269396    6.549263   10.324078
Cl    -1.299835   -1.753186   12.118338
Cl    -1.266695    5.936478    5.076322
C      1.726724    4.360119   11.088462
C      0.275673    4.189354    9.017266
C      0.757776    3.629035   10.285690
C      0.254236    2.326256   10.737688
C      3.791573    5.697573   11.287305
H      4.642975    6.129840   10.766353
C      2.528786    5.200127   13.266232
H      2.338156    5.269395   14.334874
C      2.867397    4.996795   10.526683
C     -1.126753    2.009005   10.751896
C      3.648825    5.821433   12.682244
C      1.122711    1.296335   11.179303
C      1.610236    4.499190   12.498848
C     -1.613061    0.771654   11.167600
H     -2.685076    0.580014   11.177081
C      0.229742    3.431117    7.821041
C     -0.708931   -0.201989   11.592915
C     -0.186558    5.525561    8.912311
C      0.662993    0.051905   11.603065
H      1.369711   -0.714069   11.919006
C     -0.238674    3.949456    6.615987
H     -0.239322    3.332868    5.718303
C     -0.656822    6.069647    7.719650
H     -1.016943    7.097025    7.691277
C     -0.680120    5.272216    6.574982
Cl     5.052014    7.552169   17.355036
Cl    10.594584    9.176659   15.849621
Cl     8.062501    8.522162   12.834545
Cl     5.423226   10.874653   15.047446
Cl     7.418798   10.585589   18.399026
Cl     8.547754    5.840708   15.852613
Cl     9.576349   14.143892   14.060587
Cl     9.545960    6.452144   21.100352
C      6.551100    8.029727   15.089260
C      8.002536    8.200148   17.160211
C      7.520087    8.760749   15.892046
C      8.023300   10.063755   15.440329
C      4.486446    6.691969   14.890466
H      3.635239    6.259383   15.411473
C      5.748783    7.190126   12.911430
H      5.939205    7.121192   11.842729
C      5.410645    7.392714   15.651092
C      9.404229   10.381257   15.425928
C      4.628965    6.568472   13.495471
C      7.154548   11.093650   14.999203
C      6.667346    7.891042   13.678816
C      9.890227   11.618822   15.010496
H     10.962206   11.810659   15.000851
C      8.048574    8.958048   18.356645
C      8.985832   12.592431   14.585665
C      8.465012    6.863987   17.264690
C      7.613954   12.338291   14.575721
H      6.907032   13.104233   14.260158
C      8.517313    8.439439   19.561459
H      8.518031    9.055767   20.459321
C      8.935601    6.319639   18.457101
H      9.295900    5.292312   18.485109
C      8.958987    7.116742   19.601995
