102
DTA_tBu, Singlet (Tong, 2025)
C -5.11469 -2.43244 0.491289
C -5.04004 -0.9982 0.181867 
C -6.27033 -0.24572 -0.09901
C -3.74636 -0.31993 0.150404
C -5.81975 -3.34533 -0.32243
C -5.90179 -4.70278 -0.03654
C -5.25861 -5.19021 1.095921
C -4.54541 -4.34117 1.935234
C -4.4855 -2.98742 1.627119 
C -6.40598 0.571444 -1.24286
C -7.56311 1.287628 -1.5245 
C -8.63931 1.197587 -0.64859
C -8.5669 0.409436 0.494695 
C -7.39507 -0.29158 0.753207
C -2.63456 -0.83008 -0.55946
C -1.41033 -0.18329 -0.61772
C -1.22578 1.029327 0.059673
C -2.29775 1.567419 0.784352
C -3.51373 0.905923 0.816976
Cl -7.32346 -1.1619 2.250197
Cl -5.14274 0.643606 -2.4291
Cl -4.73902 1.589351 1.83932
Cl -2.80257 -2.25464 -1.5358
N -8.2E-05 1.716541 -0.00151
Cl -6.54379 -2.81686 -1.8060
Cl -3.67673 -1.96499 2.77007
Cl -5.34688 -6.87841 1.46632
C 5.115102 -2.43195 -0.49162
C 5.040234 -0.9978 -0.1818  
C 3.746515 -0.31959 -0.15103
C 6.270314 -0.24541 0.100179
C 4.486753 -2.98657 -1.62809
C 4.546809 -4.34024 -1.93653
C 5.259328 -5.18955 -1.09692
C 5.901714 -4.70247 0.036141
C 5.819548 -3.34509 0.322348
C 3.514259 0.906447 -0.81743
C 2.298202 1.567795 -0.78554
C 1.225709 1.029408 -0.0618 
C 1.409853 -0.1834 0.615336 
C 2.634237 -0.83001 0.557847
C 7.395659 -0.29102 -0.75126
C 8.567309 0.409903 -0.49173 
C 8.638932 1.197724 0.651834 
C 7.562121 1.287514 1.527016 
C 6.405187 0.571422 1.244363 
Cl 2.801621 -2.25478 1.534078
Cl 4.740254 1.590334 -1.83864
Cl 5.141101 0.643332 2.429822
Cl 7.325088 -1.16098 -2.24851
Cl 3.678906 -1.96378 -2.77138
Cl 6.54258 -2.81704 1.806597 
Cl 5.347764 -6.87766 -1.46771
C -0.00015 3.148192 -0.00115 
C 0.859234 3.836651 0.857382 
C 0.878684 5.233651 0.859116 
C -0.00045 5.904296 -0.00045 
C -0.87947 5.233885 -0.86033 
C -0.85975 3.836896 -0.85928 
Cl -10.0892 2.080619 -0.98581
Cl 10.08861 2.080645 0.990319
C 1.810553 6.03997 1.767898  
C -1.81144 6.040469 -1.76876 
C 0.972661 6.936421 2.694825 
C 2.693762 5.139985 2.637633 
C 2.725667 6.921812 0.90156  
C -0.97362 6.93713 -2.69555  
C -2.72648 6.922099 -0.90213 
C -2.69475 5.140683 -2.6386  
H -6.44067 -5.369 -0.70084   
H -4.0604 -4.71969 2.827993  
H -7.62778 1.88761 -2.42526  
H -9.39881 0.356266 1.188002 
H -0.61234 -0.6049 -1.22032  
H -2.17224 2.489888 1.341365 
H 4.06245 -4.71849 -2.82976  
H 6.440081 -5.36891 0.700637 
H 2.17303 2.490391 -1.34241  
H 0.611519 -0.6053 1.217258  
H 9.399705 0.356917 -1.18447 
H 7.626159 1.887246 2.427992 
H 1.507949 3.262258 1.511988 
H -0.00053 6.993209 -0.00022 
H -1.50836 3.262673 -1.51413 
H 0.31188 6.334023 3.327613  
H 1.633477 7.521819 3.34523
H 0.352338 7.638026 2.126898
H 2.09493 4.510976 3.306313 
H 3.333473 4.489772 2.029657
H 3.344886 5.763522 3.26003 
H 2.149074 7.621362 0.286881
H 3.394269 7.50865 1.542666 
H 3.339906 6.308564 0.233327
H -0.35333 7.638668 -2.12751
H -0.31281 6.334874 -3.32844
H -1.63447 7.522599 -3.34586
H -2.14987 7.621545 -0.28736
H -3.39516 7.509052 -1.54305
H -3.34065 6.308692 -0.23397
H -2.09599 4.511891 -3.30756
H -3.3343 4.49027 -2.03068  
H -3.34601 5.764349 -3.26072
