81
DTA, Singlet (Tong, 2025)
C 5.076163 -1.82264 -0.43574
C 5.02255 -0.39309 -0.10069 
C 6.261622 0.332969 0.209691
C 3.738986 0.305875 -0.07675
C 5.754846 -2.76247 0.369853
C 5.816581 -4.11585 0.060481
C 5.1794 -4.57153 -1.08847  
C 4.492081 -3.69503 -1.92103
C 4.452013 -2.34613 -1.58922
C 6.396827 1.122942 1.37232 
C 7.560826 1.816412 1.681163
C 8.644818 1.729258 0.814609
C 8.573855 0.965547 -0.34527
C 7.395021 0.287081 -0.63076
C 2.609558 -0.19926 0.60846 
C 1.389559 0.456562 0.646181
C 1.226728 1.67297 -0.03045 
C 2.318772 2.210205 -0.72445
C 3.531248 1.540336 -0.73472
Cl 7.32813 -0.55369 -2.14475
Cl 5.122607 1.184504 2.54700
Cl 4.78399 2.224053 -1.72236
Cl 2.746159 -1.63419 1.57436
N -4.3E-05 2.361871 0.000404
Cl 6.470121 -2.27376 1.87113
Cl 3.675923 -1.28999 -2.7243
Cl 5.242824 -6.25411 -1.4881
C -5.07719 -1.82151 0.435696
C -5.0234 -0.39194 0.10081  
C -3.73973 0.30683 0.076852 
C -6.26239 0.33434 -0.20939 
C -4.45302 -2.34523 1.589066
C -4.49324 -3.69415 1.920734
C -5.18076 -4.57047 1.088132
C -5.81797 -4.11457 -0.06071
C -5.75607 -2.76117 -0.36994
C -3.53179 1.541304 0.734885
C -2.31932 2.21105 0.724473 
C -1.22735 1.673637 0.030467
C -1.39036 0.457366 -0.64619
C -2.61049 -0.19837 -0.60846
C -7.39573 0.288523 0.631148
C -8.57447 0.967216 0.345841 
C -8.6454 1.731096 -0.81393  
C -7.56147 1.81819 -1.68056  
C -6.39756 1.12448 -1.37191  
Cl -2.74726 -1.63317 -1.57452
Cl -4.7844 2.225044 1.722687 
Cl -5.12343 1.185968 -2.54669
Cl -7.32885 -0.55246 2.145026
Cl -3.67667 -1.28931 2.724209
Cl -6.4714 -2.27219 -1.87111 
Cl -5.24439 -6.25308 1.487631
C 0.000847 3.791626 -0.00208 
C -0.82702 4.494442 -0.87993 
C -0.82738 5.887596 -0.86718 
C 0.003266 6.606913 -0.00284 
C 0.834263 5.885142 0.864649 
C 0.831466 4.495154 0.877484 
C 0.011891 8.113639 0.001821 
Cl 10.10329 2.58436 1.185155 
Cl -10.1038 2.58647 -1.18424 
H 6.33532 -4.80325 0.719212  
H 4.012005 -4.04877 -2.82653 
H 7.624453 2.396195 2.595128 
H 9.412699 0.914109 -1.03031 
H 0.575963 0.036272 1.22844  
H 2.213114 3.137018 -1.27842 
H -4.01314 -4.04806 2.826153 
H -6.33687 -4.80182 -0.71948 
H -2.21367 3.138106 1.278012 
H -0.57684 0.036981 -1.22849 
H -9.41327 0.91583 1.030938  
H -7.62506 2.398131 -2.59443 
H -1.47018 3.945455 -1.5631  
H -1.47804 6.427135 -1.55173 
H 1.485 6.423606 1.550405    
H 1.47236 3.944209 1.56126   
H -0.70707 8.515848 -0.71695 
H 1.001723 8.504753 -0.25708 
H -0.24341 8.508177 0.991154 