100
pseudo-p-PCP-TTM2 (--) (triplet) E = -9587.953821182557 Eh (Schoneburg, 2026)
C   -2.12722902325167      0.55872936659253     -0.19199355489529
C   -1.49532885059882      1.78912627746494     -0.06118274131149
C   -0.21685619116572      2.00106954643827     -0.56639616587392
C   0.28379894211181      1.03984464283954     -1.47110865804712
C   -0.36206664898869     -0.19767970074461     -1.59441104995003
C   -1.48766247446318     -0.50086116342194     -0.83788174737729
C   1.38221275733254     -1.30884582783126      0.69598149893418
C   2.01355551357820     -0.07840018571327      0.82899992140861
C   1.37253645571068      0.98010687905432      1.47517213408488
C   0.24752162999730      0.67495419439631      2.23202477507786
C   -0.39649401158691     -0.56346375293832      2.10842374833033
C   0.10412714332004     -1.52244082698961      1.20120527976765
C   -1.81487925887963     -1.93059257193414     -0.48845394383193
C   -0.80379111899460     -2.55287889533084      0.58490860726845
C   0.69158313035795      3.03136168759195      0.04946511443978
C   1.69918072190664      2.41024965199411      1.12695294620016
C   -1.64691956057487     -0.76596335129450      2.73968762777452
C   -2.73438810795772     -0.93836434144315      3.23987015084619
C   1.53993592168335      1.23451604175514     -2.09327246644414
C   2.63473496862864      1.39826663836398     -2.58005678306184
C   -4.01522316229965     -1.14285453627742      3.80092978400788
C   -4.60007419703302     -0.17920665220914      4.63255195987976
C   -5.85646373069088     -0.38721461714915      5.16207327790897
C   -6.61562756960346     -1.55363314840440      4.90910577457969
C   -5.98903097225229     -2.50257705685851      4.06799747860342
C   -4.73426861964330     -2.31403261321328      3.52809620404211
C   -7.94178831071048     -1.76151777914822      5.47042232275136
C   -9.03355926711897     -2.23292733515609      4.62053874670488
C   -8.18898419296307     -1.49902545210191      6.88715678794965
C   -9.88017316645806     -3.29697237920427      4.99622953837283
C   -10.92758726910238     -3.74072564083909      4.20719802958469
C   -11.15829692840192     -3.12220040822548      2.98862280437916
C   -10.35822661666717     -2.07537716559433      2.55848709878256
C   -9.32110229615012     -1.64741565226674      3.36940550311157
C   -9.28620270383445     -0.73467684673790      7.33611643107198
C   -9.53388552852274     -0.48731963941818      8.67553882678204
C   -8.66725572275823     -1.00576945253554      9.62479864340472
C   -7.56917853750806     -1.76318516680677      9.24871247266180
C   -7.34760525370984     -2.00015719481622      7.90289454669689
Cl  -6.74239849788620     -4.04151760536557      3.74738925308128
Cl  -6.52843794349825      0.92693214582805      6.08953448008032
Cl  -8.42833976243773     -0.26225923935018      2.80795355682912
Cl  -12.46875149815619     -3.66651418076029      1.98626679044345
Cl  -9.58648216295887     -4.19301890780552      6.45923750884015
Cl  -6.01039855465311     -3.04471751550797      7.51581777510293
Cl  -8.96160019430176     -0.70196521150121     11.30985588076738
Cl  -10.35590377496739      0.03822401912723      6.20099138244537
C   3.92869355442600      1.58685819652909     -3.11568598900992
C   4.54349857478878      0.58814917835311     -3.88178259468568
C   5.81754533342852      0.77531623117662     -4.37510739003174
C   6.56824284816642      1.95208250270844     -4.14421953492014
C   5.90865133767618      2.93929136510172     -3.37535805489712
C   4.63417657639109      2.77320781051673     -2.87542859855447
C   7.92051657301390      2.12845159333838     -4.65089434523821
C   8.90337016046123      1.05669772693009     -4.50142857597243
C   8.30403573563019      3.37663321024366     -5.30793411957817
C   9.70803102988939      0.61198022576915     -5.57139231196100
C   10.64596772495951     -0.39772550647137     -5.43912232753580
C   10.80465515692227     -1.00858894972429     -4.20527255165611
C   10.04369264417727     -0.61888807170134     -3.11441449218444
C   9.11682582226308      0.39702649160136     -3.27247124004424
C   7.52454825329208      3.95924512873537     -6.32933628160653
C   7.87636262775030      5.13779016437121     -6.96477123419014
C   9.04741091145777      5.77793084653140     -6.59072922145372
C   9.85816039070499      5.25592985066230     -5.59515847909914
C   9.48022962372490      4.07883687791679     -4.97212029683507
Cl  6.73024879536987      4.40611242763149     -2.91443079391634
Cl  6.43926117347776     -0.48876980727872     -5.40192827987903
Cl  8.27496460515800      0.89897017047561     -1.83347634701295
Cl  11.97350622436757     -2.28082882709413     -4.02310917091243
Cl  9.49069255646926      1.25393587265822     -7.17461093957280
Cl  10.49001443317718      3.54448575692407     -3.65878268987144
Cl  9.50539022600936      7.25608050111480     -7.38055107621813
Cl  6.09634982817343      3.16091467701945     -6.92248936480016
H   -3.04951030368896      0.37779733305979      0.34514236185401
H   -1.94012203545289      2.54265343249515      0.57769567917411
H   0.12318235254564     -0.97127149676985     -2.17615076517627
H   1.82758164500249     -2.06116874781249      0.05609091830172
H   2.93634743731290      0.10348652819109      0.29318722918040
H   -0.23771867921418      1.44715613558376      2.81561593327820
H   -1.78947601088412     -2.56749196277614     -1.37397900594148
H   -2.82407055895197     -1.98096054508636     -0.08065838372566
H   -0.19450589229052     -3.30765418151383      0.08786020133287
H   -1.39756956856447     -3.06132942645181      1.34448628697352
H   0.08253331163708      3.78851294997878      0.54317355137252
H   1.28795496048503      3.53676471818550     -0.71011286701411
H   1.66949824626949      3.04707106839134      2.01238755865666
H   2.70989004338329      2.46201582045752      0.72310085263394
H   -4.07624274017557      0.74101423332296      4.84307213638199
H   -4.29648460359879     -3.08475279581074      2.91170343645490
H   -11.53799678265267     -4.56972107148269      4.53088068540002
H   -10.55034326056325     -1.58326374948713      1.61747440806053
H   -10.37724199020129      0.11866891889546      8.96900355034955
H   -6.90636896557964     -2.18217089932951      9.99013932360708
H   4.01205327767486     -0.32486975457667     -4.10426622106351
H   4.18977840035662      3.55320492902553     -2.27568373789290
H   11.22558694932710     -0.71557530862305     -6.29213086021278
H   10.18263381830622     -1.08203963577680     -2.14965309376752
H   7.25605124719474      5.53596846510274     -7.75297117288109
H   10.75899147711889      5.76652032221682     -5.29115925590496