100
TPA(OMe)(PyBTM'')2 (Hattori, 2019)
C -2.639085 1.473828 0.571926
C -3.721294 1.971757 -0.178702
C -3.521211 3.167529 -0.892650
C -2.303783 3.832745 -0.864659
C -1.227974 3.327356 -0.112035
C -1.420959 2.134746 0.610427
N 0.002562 4.019972 -0.066533
C 1.235960 3.334533 -0.002076
C -0.001115 5.451742 -0.078923
C 0.759727 6.158124 -1.024788
C 0.761025 7.545356 -1.034132
C -0.013765 8.262409 -0.108380
C -0.782356 7.565502 0.832178
C -0.762769 6.169465 0.846917
C 2.312120 3.868479 0.729939
C 3.532412 3.209149 0.775784
C 3.734821 1.991350 0.101184
C 2.652622 1.465769 -0.630606
C 1.431936 2.120217 -0.686934
C -5.003177 1.243355 -0.188599
N -5.069820 0.117517 0.553355
C -6.172833 -0.584916 0.583969
C -7.378516 -0.295735 -0.122025
C -7.281034 0.897065 -0.882230
C -6.125392 1.661606 -0.917083
C -8.580592 -1.130140 -0.061807
C -9.900458 -0.505838 0.153093
C -8.478136 -2.593164 -0.220352
C -9.094181 -3.507161 0.672766
C -9.011124 -4.888255 0.529027
C -8.286367 -5.411991 -0.536194
C -7.654043 -4.574417 -1.448983
C -7.758699 -3.197398 -1.283719
C -10.143997 0.424114 1.197024
C -11.381785 1.020757 1.413852
C -12.442950 0.694034 0.576170
C -12.276419 -0.212132 -0.465556
C -11.026032 -0.789309 -0.662476
Cl -8.596401 1.434134 -1.907222
Cl -7.012164 -2.226783 -2.540654
Cl -9.941797 -2.944791 2.101596
Cl -6.111042 -1.958752 1.689636
Cl -8.896839 0.823235 2.364411
Cl -10.888872 -1.839352 -2.060679
Cl -8.169069 -7.146626 -0.731106
Cl -14.007677 1.432918 0.835975
C 5.018842 1.267248 0.131867
N 5.093321 0.128901 -0.589928
C 6.198514 -0.570646 -0.601670
C 7.399005 -0.265607 0.106446
C 7.292804 0.939038 0.846603
C 6.134712 1.700533 0.861283
C 8.604388 -1.096412 0.066844
C 9.923337 -0.470909 -0.149847
C 8.506233 -2.557152 0.247921
C 9.131030 -3.482785 -0.626961
C 9.052543 -4.861739 -0.461662
C 8.323735 -5.371304 0.607640
C 7.682776 -4.521852 1.503265
C 7.782891 -3.147236 1.316524
C 10.169788 0.444323 -1.206089
C 11.406901 1.041705 -1.424787
C 12.464411 0.730797 -0.576543
C 12.294898 -0.160372 0.477565
C 11.045263 -0.738578 0.676088
Cl 8.599436 1.496090 1.872129
Cl 7.024859 -2.159686 2.553286
Cl .984719 -2.939805 -2.059602
Cl 6.147152 -1.963523 -1.683818
Cl 8.928096 0.822264 -2.386177
Cl 10.903868 -1.768135 2.089099
Cl 8.212185 -7.103137 0.829561
Cl 14.028245 1.470731 -0.838593
8 0 0.050369 9.619941 -0.208771
C -0.710742 10.399794 0.701364
H -2.779325 0.561989 1.141099
H -4.318176 3.592299 -1.494671
H -2.175960 4.748072 -1.432317
H -0.611474 1.735655 1.212386
H 1.351295 5.609876 -1.751628
H 1.345883 8.100096 -1.760925
H -1.385995 8.092244 1.562150
H -1.350442 5.632384 1.585276
H 2.183039 4.801650 1.267342
H 4.330250 3.658000 1.358926
H 2.794990 0.536848 -1.170876
H 0.622692 1.698980 -1.273890
H -6.107300 2.552436 -1.530703
H -9.487612 -5.539893 1.250717
H -7.104238 -4.981593 -2.288262
H -11.515888 1.711736 2.236712
H -13.097536 -0.453429 -1.128866
H 6.109068 2.600211 1.461545
H 9.535724 -5.522918 -1.170105
H 7.129721 -4.917792 2.345790
H 11.543362 1.720963 -2.256968
H 13.113047 -0.389126 1.148932
H -0.511834 11.440777 0.441292
H -1.785793 10.200053 0.602180
H -0.404219 10.220623 1.740286