99
TPA(Me)(PyBTM'')2
C 2.502219 1.264893 -0.889148
C 3.635022 1.688424 -0.170206
C 3.521366 2.868201 0.588890
C 2.333283 3.581337 0.641787
C 1.203933 3.148488 -0.077123
C 1.312940 1.978993 -0.851880
N -0.000895 3.886873 -0.038020
C -1.259031 3.243898 -0.067792
C 0.054695 5.315106 0.027245
C -0.683950 6.011296 0.992491
C -0.634704 7.402656 1.042604
C 0.160618 8.138198 0.153641
C 0.897803 7.427661 -0.803695
C 0.844728 6.037815 -0.876384
C -2.342226 3.826037 -0.750979
C -3.583429 3.205578 -0.767159
C -3.798928 1.978899 -0.112954
C -2.707522 1.400289 0.562292
C -1.466923 2.018771 0.593311
C 4.910833 0.949844 -0.192808
N 5.969599 1.542489 0.398678
C 7.130314 0.938914 0.422208
C 7.426906 -0.343241 -0.128057
C 6.296527 -0.937851 -0.743565
C 5.059630 -0.313270 -0.781851
C 8.749004 -0.971846 -0.071441
C 9.501474 -1.008553 1.196584
C 9.328175 -1.576321 -1.286625
C 9.874283 -2.885578 -1.307506
C 10.429600 -3.463153 -2.444788
C 10.450983 -2.733272 -3.628427
C 9.929426 -1.444975 -3.681531
C 9.385427 -0.890200 -2.527689
C 10.862529 -0.620103 1.292830
C 11.584562 -0.657577 2.481250
C 10.950548 -1.090127 3.641029
C 9.616630 -1.483557 3.620475
C 8.920831 -1.441384 2.416940
Cl 6.369631 -2.554990 -1.412367
Cl 8.844643 0.772420 -2.670748
Cl 9.800021 -3.920356 0.106835
Cl 8.418318 1.903055 1.146873
Cl 11.717669 0.035408 -0.091027
Cl 7.276271 -2.050668 2.473440
Cl 11.142173 -3.445004 -5.069584
Cl 11.842443 -1.140413 5.145337
C -5.106149 1.297133 -0.114177
N -5.148592 0.058278 0.420150
C -6.278186 -0.600984 0.459461
C -7.541745 -0.140505 -0.016172
C -7.463530 1.160683 -0.573779
C -6.275963 1.873454 -0.628102
C -8.777557 -0.923936 0.054891
C -9.157896 -1.601056 1.308789
C -9.648795 -1.031866 -1.131192
C -11.046497 -0.793650 -1.081573
C -11.878989 -0.899843 -2.191087
C -11.324628 -1.250250 -3.417505
C -9.960853 -1.494465 -3.540138
C -9.152956 -1.386550 -2.412870
C -9.555224 -2.962171 1.355949
C -9.924047 -3.609133 2.530896
C -9.900844 -2.899066 3.726495
C -9.518727 -1.561974 3.754686
C -9.160688 -0.938982 2.563895
Cl -8.894736 1.994142 -1.144302
Cl -7.467013 -1.810129 -2.647790
Cl -11.820107 -0.246955 0.394724
Cl -6.124064 -2.237923 1.099480
Cl -9.517731 -3.967099 -0.080887
Cl -8.791067 0.772058 2.688040
Cl -12.355842 -1.384797 -4.824485
Cl -10.358363 -3.697709 5.214286
C 0.241984 9.643993 0.240169
H 2.545770 0.380969 -1.517632
H 4.383929 3.208516 1.150455
H 2.269580 4.479074 1.247341
H 0.463370 1.639815 -1.434740
H -1.297477 5.459256 1.697980
H -1.217730 7.925674 1.797152
H 1.514928 7.971412 -1.515295
H 1.413028 5.506953 -1.634043
H -2.200746 4.763694 -1.277461
H -4.383379 3.681756 -1.325320
H -2.857489 0.459207 1.079091
H -0.650238 1.559662 1.140285
H 4.224600 -0.832529 -1.233211
H 10.818664 -4.472962 -2.407515
H 9.962002 -0.869963 -4.598462
H 12.617607 -0.333712 2.500548
H 9.127682 -1.836846 4.519657
H -6.285643 2.876394 -1.033786
H -12.937600 -0.691703 -2.098923
H -9.531896 -1.784731 -4.491039
H -10.203353 -4.655103 2.511281
H -9.517009 -1.004164 4.682720
H -0.678178 10.072764 0.650690
H 1.067485 9.961330 0.891434
H 0.415442 10.093318 -0.743504