76
TTM-Ph-TTM (Mesto, 2025)
Cl -5.81388 1.59847 2.20776
C -5.00201 0.73840 0.93723
C -5.75109 -0.00009 -0.00007
C -5.00201 -0.73859 -0.93736
Cl -5.81386 -1.59861 -2.20794
C -3.61329 -0.74603 -0.94263
H -3.09604 -1.30663 -1.72082
C -2.89695 -0.00011 -0.00005
C -3.61329 0.74582 0.94252
H -3.09604 1.30642 1.72071
C 7.22149 -0.00001 0.00002
C 7.95671 1.27504 -0.01227
C 7.70340 2.27020 -0.97682
Cl 6.57038 1.96998 -2.25380
C 8.38250 3.48330 -0.99699
C 9.35526 3.72399 -0.03198
Cl 10.21123 5.22863 -0.04401
C 9.65024 2.77522 0.94200
C 8.95036 1.57362 0.94068
Cl 9.27518 0.46015 2.22876
C 7.95679 -1.27502 0.01229
C 8.95043 -1.57354 -0.94068
Cl 9.27515 -0.46008 -2.22879
C 9.65039 -2.77510 -0.94201
C 9.35549 -3.72388 0.03198
Cl 10.21157 -5.22846 0.04401
C 8.38275 -3.48325 0.99702
C 7.70357 -2.27019 0.97686
Cl 6.57057 -1.97003 2.25388
C -7.22144 -0.00003 -0.00007
C -7.95685 -1.27500 0.01018
C -7.70368 -2.27175 0.97312
Cl -6.57051 -1.97373 2.25048
C -8.38294 -3.48479 0.99131
C -9.35570 -3.72379 0.02588
Cl -10.21183 -5.22836 0.03537
C -9.65054 -2.77340 -0.94655
C -8.95050 -1.57190 -0.94327
Cl -9.27508 -0.45639 -2.22964
C -7.95672 1.27501 -0.01022
C -8.95020 1.57203 0.94338
Cl -9.27472 0.45657 2.22981
C -9.65011 2.77361 0.94675
C -9.35530 3.72396 -0.02573
Cl -10.21124 5.22863 -0.03510
C -8.38270 3.48485 -0.99130
C -7.70357 2.27173 -0.97320
Cl -6.57064 1.97358 -2.25074
H 8.16571 4.22017 -1.76817
H 10.40014 2.97221 1.70613
H 10.40028 -2.97205 -1.70616
H 8.16603 -4.22012 1.76821
H -8.16622 -4.22296 1.76127
H -10.39985 2.96937 1.71134
H -8.16601 4.22299 -1.76129
H -10.40042 -2.96907 -1.71104
C 3.61331 0.74697 0.94167
C 5.00203 0.73961 0.93636
C 5.75112 -0.00004 0.00001
C 5.00206 -0.73971 -0.93636
C 3.61334 -0.74711 -0.94169
C 2.89695 -0.00008 -0.00002
H 3.09611 1.30846 1.71924
Cl 5.81394 1.60126 2.20580
Cl 5.81402 -1.60136 -2.20578
H 3.09617 -1.30863 -1.71926
C 0.69498 -1.15340 -0.34226
C -0.69499 -1.15340 -0.34230
C -1.41453 -0.00011 -0.00005
C -0.69500 1.15319 0.34222
C 0.69496 1.15321 0.34219
C 1.41453 -0.00010 -0.00003
H 1.23107 -2.07398 -0.57906
H -1.23111 -2.07395 -0.57919
H -1.23114 2.07372 0.57910
H 1.23104 2.07379 0.57901