94
M-CDR_new geometry
Cl    -3.721525   -1.385192   -2.640891
C     -3.029455   -0.419952   -1.376348
C     -3.666194    0.600821   -0.752029
C     -2.938411    1.305809    0.147252
Cl    -3.558104    2.565155    1.169331
C     -1.671421    0.977945    0.408865
H     -1.185739    1.602987    1.146798
C     -1.020707   -0.024947   -0.204594
C     -1.745840   -0.692718   -1.116903
H     -1.328788   -1.529130   -1.664621
C      4.131557   -1.473952    1.142589
C      4.622207   -2.719330    0.881672
C      3.880269   -3.842572    1.049822
Cl     2.246174   -3.881335    1.629809
C      4.440589   -5.049180    0.921993
C      5.728101   -5.232715    0.598674
C      7.571394   -8.878022    0.535772
C      6.429858   -4.117437    0.374743
C      5.919217   -2.896447    0.520148
Cl     7.035631   -1.627995    0.121184
C      4.924088   -0.654112    1.882756
C      5.535601   -1.100540    3.008608
Cl     5.334069   -2.670678    3.720307
C      6.271231   -0.275394    3.747527
C      6.492431    0.999439    3.415247
H      6.461365   -9.325528    2.229644
C      5.926016    1.420506    2.276222
C      5.135029    0.637888    1.534687
Cl     4.521804    1.354254    0.080723
C     -4.974144    0.894639   -1.005268
C     -5.390560    2.192635   -1.096898
C     -4.646792    3.141557   -1.720957
Cl    -3.179604    2.842406   -2.597919
C     -5.080022    4.401725   -1.810826
C     -6.252655    4.813119   -1.312595
H      9.717799    4.019546    4.059618
C     -6.970760    3.872586   -0.690748
C     -6.573699    2.606205   -0.569969
Cl    -7.622966    1.660991    0.441416
C     -5.893809   -0.105734   -1.111262
C     -6.879952   -0.064572   -2.042805
Cl    -6.985258    1.100673   -3.324791
C     -7.830935   -0.998952   -2.074476
C     -7.895386   -2.001889   -1.191140
C     -8.928328   -2.884618   -1.178984
C     -6.894515   -2.055914   -0.303703
C     -5.904570   -1.161675   -0.259295
Cl    -4.815787   -1.397091    1.070731
H      3.797322   -5.909315    1.075095
H      7.489192   -4.174137    0.149533
H      6.742551   -0.692913    4.632418
H      6.047301    2.452145    1.959871
H     -4.472702    5.086927   -2.392378
H     -8.619124   -0.865793   -2.807509
H     -6.852154   -2.873535    0.408757
H     -7.888163    4.146934   -0.180602
C      1.015983   -1.171461   -0.663624
C      2.271999   -1.518923   -0.356760
C      2.868046   -1.081609    0.783092
C      2.122020   -0.242380    1.551140
C      0.883240    0.102999    1.195470
C      0.269111   -0.353813    0.095022
H      0.641415   -1.554534   -1.605536
Cl     3.056122   -2.445521   -1.597839
Cl     2.524450    0.352624    3.134481
H      0.363194    0.726406    1.910799
C     -5.831054    7.151667   -1.305885
C     -6.689348    6.096986   -1.417462
C     -8.007213    6.380659   -1.634971
C      7.256839   -6.762311   -0.388509
C     -8.412857    7.650781   -1.732713
H     -9.460691    7.864773   -1.935841
C     -7.574586    8.670381   -1.607641
C      7.124452    1.762287    5.558118
C     -6.293802    8.403346   -1.393882
H     -5.609745    9.241037   -1.269642
C      6.023451   -7.411962    1.481043
C      7.256421    1.794902    4.202214
C      8.181599    2.639630    3.672207
C      8.948437    3.376853    4.483558
H      8.587801   -8.198752   -1.144240
C      6.316639   -6.457001    0.551752
H      7.764280    2.526331    7.402951
C      7.898219    2.537298    6.322729
C      8.823003    3.335316    5.804754
C      7.852686   -7.958933   -0.377922
C     -9.481820   -3.299369   -0.002720
C    -10.526206   -4.134079   -0.013297
H    -10.990608   -4.427496    0.926698
C    -11.040864   -4.607491   -1.139683
C      6.664568   -8.585351    1.457698
C    -10.505034   -4.211389   -2.286771
H    -10.917387   -4.605993   -3.213672
C     -9.473856   -3.361344   -2.333821
