94
M-Coordinates
Cl    -3.925478   -1.273109   -2.839542
C     -3.092330   -0.370547   -1.616162
C     -3.771674    0.604337   -0.864927
C     -2.977814    1.310737    0.055236
Cl    -3.666392    2.481863    1.133935
C     -1.629499    1.068056    0.211917
H     -1.079234    1.659521    0.929506
C     -0.995700    0.074075   -0.524750
C     -1.746510   -0.640360   -1.452051
H     -1.297229   -1.429310   -2.039350
C      4.452206   -1.410835    0.713901
C      4.962636   -2.717991    0.326134
C      4.203891   -3.899928    0.421244
Cl     2.509163   -3.866591    0.794510
C      4.780419   -5.154092    0.360820
C      6.154470   -5.300117    0.219055
C      8.093256   -9.066335    0.882412
C      6.914267   -4.157965   -0.009992
C      6.324348   -2.911453    0.017010
Cl     7.346309   -1.556636   -0.349379
C      5.281756   -0.590364    1.610319
C      5.832768   -1.106796    2.791711
Cl     5.501480   -2.732347    3.305390
C      6.583807   -0.335349    3.654082
C      6.810675    1.007709    3.384979
C      7.563480   -7.217961   -0.600675
C      6.293637    1.549934    2.216166
C      5.550326    0.760175    1.355676
Cl     4.978925    1.493018   -0.109911
C     -5.194230    0.884008   -1.035327
C     -5.640822    2.281760   -1.103423
C     -5.079928    3.197016   -2.002926
Cl    -3.867891    2.685323   -3.134697
C     -5.501787    4.509647   -2.082667
C     -6.512058    4.974150   -1.250112
H     10.617496    3.079103    5.048823
C     -7.081693    4.094559   -0.338555
C     -6.654112    2.782407   -0.275316
Cl    -7.370850    1.778694    0.946547
C     -6.197501   -0.173249   -1.110048
C     -7.265980   -0.121183   -2.024313
Cl    -7.316239    1.079471   -3.277376
C     -8.299874   -1.035010   -2.014917
C     -8.307650   -2.088420   -1.108802
C     -9.455439   -3.034844   -1.076064
C     -7.236176   -2.207368   -0.231653
C     -6.220429   -1.269786   -0.229725
Cl    -5.003097   -1.452414    0.993751
H      4.153725   -6.024273    0.497734
H      7.980684   -4.230880   -0.172794
H      6.967835   -0.778182    4.563218
H      6.459271    2.590816    1.972174
H     -5.055023    5.166429   -2.816707
H     -9.108706   -0.919070   -2.722875
H     -7.200302   -3.021453    0.479080
H     -7.852556    4.433877    0.340058
C      1.292866   -0.689135   -1.251118
C      2.592736   -1.035140   -0.933072
C      3.103851   -0.962363    0.373373
C      2.209323   -0.481497    1.342363
C      0.907865   -0.139196    1.041224
C      0.425165   -0.246798   -0.257444
H      0.971143   -0.753688   -2.281565
Cl     3.616908   -1.550702   -2.232523
Cl     2.638038   -0.414812    3.021620
H      0.254623    0.156884    1.849265
C     -6.128623    7.428353   -0.967331
C     -6.978883    6.383032   -1.349491
C     -8.259205    6.654750   -1.839630
C      8.192665   -8.432662   -0.347564
C     -8.666474    7.979725   -1.955355
H     -9.655701    8.191899   -2.346722
C     -7.839477    9.032284   -1.591873
C      6.900033    2.170528    5.576333
C     -6.576394    8.735960   -1.092254
H     -5.921216    9.546349   -0.789481
H      7.259549   -8.928530    2.848902
C      7.550996    1.819380    4.390348
C      8.892051    2.158295    4.187786
C      9.571089    2.831901    5.194996
C      6.687410   -7.248809    1.664124
H      8.780074   -8.892046   -1.135597
H      7.111287    3.115239    7.482056
C      7.613158    2.848443    6.557970
C      8.950602    3.178627    6.389788
C      6.803445   -6.624314    0.411662
C    -10.267249   -3.101088    0.064836
C    -11.369248   -3.946377    0.057802
H    -12.006984   -3.982458    0.934908
C    -11.685317   -4.730365   -1.044221
C      7.335974   -8.457048    1.874631
C    -10.862946   -4.654856   -2.159250
H    -11.091185   -5.261580   -3.029306
C     -9.753125   -3.818551   -2.197230
