164
DD-CDR
Cl    -3.414330   -2.199757   -3.394668
C     -2.644758   -1.687994   -1.923423
C     -3.244795   -0.711823   -1.087364
C     -2.423031   -0.281977   -0.016930
Cl    -3.013587    0.871495    1.137980
C     -1.172730   -0.805394    0.226521
H     -0.612288   -0.422824    1.067256
C     -0.647452   -1.812234   -0.583557
C     -1.407170   -2.232926   -1.673270
H     -1.043004   -3.000294   -2.340444
C      4.482326   -4.208886    0.557001
C      4.834409   -5.499187    0.026263
C      3.921478   -6.580500   -0.009802
Cl     2.378403   -6.456339    0.777790
C      4.220256   -7.793821   -0.589571
C      5.473638   -8.019298   -1.151872
C      9.985089   -0.098358    4.639321
C      6.419163   -7.000174   -1.096985
C      6.103372   -5.782561   -0.530697
Cl     7.308216   -4.537642   -0.651105
C      5.401814   -3.455403    1.376004
C      6.102734   -4.018039    2.463616
Cl     5.883362   -5.692032    2.867437
C      6.902848   -3.271196    3.303919
C      7.066542   -1.907001    3.090729
H    -13.271454   -8.737935   -3.965804
C      6.430354   -1.321189    2.002307
C      5.626127   -2.074856    1.175675
Cl     4.951614   -1.263647   -0.204676
C     -4.590689   -0.253653   -1.281622
C     -4.972034    1.126658   -1.114049
C     -4.244980    2.201273   -1.670541
Cl    -2.799893    1.893855   -2.581323
C     -4.680663    3.508868   -1.612444
C     -5.871748    3.828966   -0.968544
C     -4.561688    5.881036    0.661879
C     -6.591371    2.806053   -0.360086
C     -6.153492    1.502245   -0.435685
Cl    -7.086565    0.316256    0.424613
C     -5.599948   -1.212441   -1.676735
C     -6.469638   -0.994048   -2.766020
Cl    -6.362311    0.468006   -3.699274
C     -7.355477   -1.949155   -3.215403
C     -7.457399   -3.177610   -2.570186
C      9.917259   -1.574646    2.604323
C     -6.661480   -3.411422   -1.453538
C     -5.757675   -2.458807   -1.032883
Cl    -4.832648   -2.826282    0.390701
H      3.481941   -8.584019   -0.575029
H      7.392894   -7.137088   -1.547491
H      7.381152   -3.752053    4.146869
H      6.566684   -0.268132    1.794799
H     -4.104732    4.280310   -2.105862
H     -7.967082   -1.737775   -4.082052
H     -6.726996   -4.351709   -0.922927
H     -7.499869    3.029054    0.183140
C      1.415903   -3.026020   -1.304257
C      2.624883   -3.620930   -1.022738
C      3.193510   -3.632111    0.271871
C      2.404353   -3.003491    1.263746
C      1.180982   -2.431559    0.997680
C      0.663947   -2.422481   -0.296608
H      1.083367   -3.006367   -2.331897
Cl     3.510064   -4.255334   -2.374980
Cl     2.888117   -3.040355    2.932140
H      0.613355   -2.028013    1.823614
C     -5.762535    6.205993   -0.187635
C     -6.389892    5.221982   -0.957628
C     -7.519178    5.536037   -1.723127
C     -8.215061    4.489874   -2.555119
C     -7.996036    6.840521   -1.713401
H     -8.867564    7.084911   -2.311770
C     -7.386276    7.836195   -0.961223
C     -7.902517    9.249046   -0.993833
C     -6.275028    7.498050   -0.200253
H     -5.795027    8.258876    0.406281
H     -8.904555    4.957428   -3.256776
H     -7.503175    3.886017   -3.119450
H     -8.788488    3.800670   -1.931615
H     -4.344562    6.700446    1.345865
H     -4.722641    4.975634    1.248785
H     -3.673164    5.709589    0.051064
H     -7.461672    9.801908   -1.826353
H     -8.984705    9.270936   -1.122177
H     -7.655337    9.782361   -0.076298
C    -11.626433   -8.846667   -8.193613
H      5.553544   -1.680537    5.537934
C      7.266282   -0.445090    5.097080
H      7.555830    0.839690    6.779768
C     10.194879    1.440934    6.621483
H    -14.432526   -8.714140   -1.779331
H     11.257160    1.203387    6.574157
H     11.046829    0.033097    4.459446
C      8.033349    0.352609    5.935920
C      9.393287    0.541399    5.720172
H      9.777090   -2.656617    2.631165
H      9.869705    1.352181    7.658196
N    -11.020740   -7.093852   -4.436055
H      5.479648   -0.054070    6.224502
H      5.195201   -0.315569    4.499745
C      9.250471   -0.904205    3.776549
C      5.794054   -0.631134    5.356067
C      7.884718   -1.072873    4.011259
C    -11.688517   -6.915857   -6.763171
C    -10.960842   -9.041194   -5.890710
H    -11.895997   -5.866416   -6.596699
H    -10.590245   -9.625794   -5.058352
H    -13.648744   -7.274354    0.054900
C    -11.167950   -9.618214   -7.135103
H    -11.783402   -9.298152   -9.164290
H    -12.246226   -6.892566   -8.829530
H    -10.961339  -10.670426   -7.280167
H     10.075632    2.486485    6.328867
C    -11.224856   -7.690513   -5.707878
H     10.986518   -1.368066    2.598513
H      9.497649   -1.225602    1.658628
C     -8.251500   -4.637929   -4.420647
C     -8.378305   -4.215814   -3.087498
C     -9.359411   -4.767610   -2.276791
C     -9.077610   -5.603047   -4.962241
C    -10.066649   -6.133696   -4.141717
C    -10.220129   -5.722549   -2.806255
C    -11.812727   -7.286083   -3.312312
C    -11.350883   -6.456991   -2.275444
C    -12.013360   -6.453762   -1.051608
C    -13.117115   -7.270473   -0.887216
C    -12.920744   -8.111513   -3.156165
C    -13.562377   -8.088607   -1.931032
H     -7.465949   -4.206788   -5.029209
C    -11.883636   -7.495424   -8.007400
H     -9.464977   -4.433304   -1.251283
H     -8.956708   -5.934991   -5.984943
H    -11.677008   -5.814464   -0.244845
C      4.995418   -9.718377   -2.906645
C      5.776015   -9.310839   -1.813092
C      6.813189  -10.117248   -1.366481
C      5.231719  -10.906649   -3.570761
C      6.263081  -11.711948   -3.100128
C      7.052272  -11.331876   -2.000411
C      7.745678  -13.373832   -2.767112
C      7.998964  -12.406933   -1.779267
C      8.987924  -12.639501   -0.827960
C      9.699331  -13.824259   -0.878680
C      8.455434  -14.568507   -2.825720
C      9.431881  -14.775853   -1.868420
H      4.201617   -9.065884   -3.249342
H      7.915160  -13.592208   -5.822381
H      7.410451   -9.809248   -0.516203
H      4.637295  -11.195627   -4.427245
H      9.189617  -11.909990   -0.053544
H     10.466009  -14.024633   -0.142247
H      8.242850  -15.311162   -3.583207
H      9.996589  -15.699141   -1.882673
N      6.699357  -12.940878   -3.571418
C      6.895919  -13.953386   -5.770649
C      6.131088  -13.671775   -4.645841
C      4.816851  -14.113404   -4.563079
H      4.239898  -13.894871   -3.673531
C      4.266792  -14.834596   -5.611915
H      3.243621  -15.180487   -5.546208
C      5.030379  -15.126810   -6.733379
H      4.601572  -15.697030   -7.546801
C      6.344734  -14.687892   -6.809860
H      6.940847  -14.909292   -7.685430