
                                 *****************
                                 * O   R   C   A *
                                 *****************

                                            #,                                       
                                            ###                                      
                                            ####                                     
                                            #####                                    
                                            ######                                   
                                           ########,                                 
                                     ,,################,,,,,                         
                               ,,#################################,,                 
                          ,,##########################################,,             
                       ,#########################################, ''#####,          
                    ,#############################################,,   '####,        
                  ,##################################################,,,,####,       
                ,###########''''           ''''###############################       
              ,#####''   ,,,,##########,,,,          '''####'''          '####       
            ,##' ,,,,###########################,,,                        '##       
           ' ,,###''''                  '''############,,,                           
         ,,##''                                '''############,,,,        ,,,,,,###''
      ,#''                                            '''#######################'''  
     '                                                          ''''####''''         
             ,#######,   #######,   ,#######,      ##                                
            ,#'     '#,  ##    ##  ,#'     '#,    #''#        ,####,    ,#,          
            ##       ##  ##   ,#'  ##            #'  '#       #'       ,# #          
            ##       ##  #######   ##           ,######,      #####,      #          
            '#,     ,#'  ##    ##  '#,     ,#' ,#      #,     #,   #      #          
             '#######'   ##     ##  '#######'  #'      '#     '####' #    #          



                #########################################################
                #                        -***-                          #
                #          Department of theory and spectroscopy        #
                #                                                       #
                #                      Frank Neese                      #
                #                                                       #
                #     Directorship, Architecture, Infrastructure        #
                #                    SHARK, DRIVERS                     #
                #        Core code/Algorithms in most modules           #
                #                                                       #
                #        Max Planck Institute fuer Kohlenforschung      #
                #                Kaiser Wilhelm Platz 1                 #
                #                 D-45470 Muelheim/Ruhr                 #
                #                      Germany                          #
                #                                                       #
                #                  All rights reserved                  #
                #                        -***-                          #
                #########################################################


                         Program Version 6.1.1  -  RELEASE   -
                                (GIT: $487d211c$)
                          ($2025-11-21 10:33:24 +0100$)


 With contributions from (in alphabetic order):
[Max-Planck-Institut fuer Kohlenforschung]                               
  Daniel Aravena         : Magnetic Suceptibility                        
  Michael Atanasov       : Ab Initio Ligand Field Theory (pilot matlab implementation)
  Alexander A. Auer      : GIAO ZORA, VPT2 properties, NMR spectrum      
  Ute Becker             : All parallelization in ORCA, NUMFREQ, NUMCALC 
  Giovanni Bistoni       : ED, misc. LED, open-shell LED, HFLD           
  Dmytro Bykov           : pre 5.0 version of the SCF Hessian            
  Marcos Casanova-Páez   : Triplet and SCS-CIS(D). UHF-(DLPNO)-IP/EA/STEOM-CCSD. UHF-CVS-IP/STEOM-CCSD   
  Vijay G. Chilkuri      : MRCI spin determinant printing, contributions to CSF-ICE 
  Pauline Colinet        : FMM embedding                                 
  Dipayan Datta          : RHF DLPNO-CCSD density                        
  Achintya Kumar Dutta   : EOM-CC, STEOM-CC                              
  Nicolas Foglia         : Exact transition moments, OPA infrastructure, MCD improvements    
  Dmitry Ganyushin       : Spin-Orbit,Spin-Spin,Magnetic field MRCI      
  Miquel Garcia-Rates    : C-PCM and meta-GGA Hessian, CCSD/C-PCM, Gaussian charge scheme 
  Tiago L. C. Gouveia    : GS-ROHF, GS-ROCIS                             
  Yang Guo               : DLPNO-NEVPT2, F12-NEVPT2, CIM, IAO-localization        
  Andreas Hansen         : Spin unrestricted coupled pair/coupled cluster methods 
  Ingolf Harden          : AUTO-CI MPn and infrastructure                
  Benjamin Helmich-Paris : MC-RPA, TRAH-(SCF,CASSCF), AVAS, COSX integrals, SCF dyn. polar., MC-PDFT, srDFT 
  Lee Huntington         : MR-EOM, pCC                                   
  Robert Izsak           : Overlap fitted RIJCOSX, COSX-SCS-MP3, EOM     
  Riya Kayal             : Wick's Theorem for AUTO-CI, AUTO-CI UHF-CCSDT 
  Emily Kempfer          : AUTO-CI RHF CISDT and CCSDT, approximate NEVPT4
  Christian Kollmar      : KDIIS, OOCD, Brueckner-CCSD(T), CCSD density, CASPT2, CASPT2-K, improved NEVPT2 
  Axel Koslowski         : Symmetry handling                             
  Simone Kossmann        : meta-GGA functionals, TD-DFT gradient, OOMP2, (MP2 Hessian; deprecated post 5.0) 
  Lucas Lang             : DCDCAS, Hyperfine gauge corrections, ICE-SOC+SSC
  Marvin Lechner         : AUTO-CI (C++ implementation), FIC-MRCC        
  Spencer Leger          : CASSCF response                               
  Dagmar Lenk            : GEPOL surface, SMD, ORCA-2-JSON               
  Dimitrios Liakos       : Extrapolation schemes; Compound Job, Property file
  Dimitrios Manganas     : Further ROCIS development; embedding schemes. LFT, Crystal Embedding 
  Dimitrios Pantazis     : SARC Basis sets                               
  Anastasios Papadopoulos: AUTO-CI, single reference methods and gradients 
  Taras Petrenko         : pre 6.0 DFT Hessian and TD-DFT gradient,  ECA, NRVS 
  Petra Pikulova         : Analytic Raman intensities                    
  Peter Pinski           : DLPNO-MP2, DLPNO-MP2 Gradient                 
  Shashank Vittal Rao    : ES-AILFT, MagRelax                            
  Christoph Reimann      : Effective Core Potentials                     
  Marius Retegan         : Local ZFS, SOC                                
  Christoph Riplinger    : Optimizer, TS searches, QM/MM, DLPNO-CCSD(T), (RO)-DLPNO pert. Triples 
  Michael Roemelt        : Original ROCIS implementation, recursive CI coupling coefficients
  Masaaki Saitow         : Open-shell DLPNO-CCSD energy and density      
  Barbara Sandhoefer     : DKH picture change effects                    
  Yorick L. A. Schmerwitz: GMF and freeze-and-release deltaSCF, NEB S-IDPP initial path                    
  Kantharuban Sivalingam : CASSCF convergence/infrastructure, NEVPT2, NEVPT3, NEVPT4(SD), FIC-MRCI and CEPA variants
  Bernardo de Souza      : ESD, SOC TD-DFT                               
  Georgi L. Stoychev     : AutoAux, RI-MP2 NMR, DLPNO-MP2 response, X2C  
  Van Anh Tran           : RI-MP2 g-tensors                              
  Willem Van den Heuvel  : Paramagnetic NMR                              
  Zikuan Wang            : NOTCH, Electric field optimization            
  Frank Wennmohs         : Technical directorship and infrastructure     
  Hang Xu                : AUTO-CI-Response properties                   
                                                                         
[FACCTs GmbH]                                                            
  Markus Bursch, Nicolas Foglia, Miquel Garcia-Rates, Ingolf Harden, Hagen Neugebauer, Anastasios Papadopoulos, 
  Christoph Riplinger, Bernardo de Souza, Georgi L. Stoychev                                                    
                                                                 
  APM, various basis sets, CI-OPT, improved COSX, DLPNO-Multilevel,           
  DOCKER, DRACO, updates on ESD, Fragmentator, GOAT, IRC, LR-CPCM, L-BFGS, MBIS, meta-GGA TD-DFT gradient, ML-optimized integration grids, 
  MM, NACMEs, nearIR, NEB, NEB-TS, NL-DFT gradient (VV10), 2- and 3-layer-ONIOM, interface openCOSMO-RS, QMMM,   
  Crystal-QMMM, RESP, rigid body optimization, SF, symmetry and pop. for TD-DFT, various functionals, SOLVATOR                                   
                                                                         
[Other institutions]                                                     
  V. Asgeirsson          : NEB                                           
  Christoph Bannwarth    : sTDA-DFT, sTD-DFT, PBEh-3c, B97-3c, D3        
  Giovanni Bistoni       : ETS/NOCV, ADLD/ADEX, COVALED                  
  Martin Brehm           : Molecular dynamics                            
  Ronald Cardenas        : ETS/NOCV                                      
  Martina Colucci        : COVALED                                       
  Sebastian Ehlert       : rSCAN, r2SCAN, r2SCAN-3c, D4, dhf basis sets  
  Marvin Friede          : D4 for Fr, Ra, Ac-Lr                          
  Lars Goerigk           : TD-DFT with DH, B97 family of functionals     
  Stefan Grimme          : VdW corrections, initial TS optimization, DFT functionals, gCP, sTDA/sTD-DF 
  Waldemar Hujo          : DFT-NL                                        
  H. Jonsson             : NEB                                           
  Holger Kruse           : gCP                                           
  Marcel Mueller         : wB97X-3c, vDZP basis set                      
  Hagen Neugebauer       : wr2SCAN, Native XTB                           
  Gianluca Regni         : ADLD/ADEX                                     
  Tobias Risthaus        : pre 6.0 range-separated hybrid DFT and stability analysis
  Lukas Wittmann         : regularized MP2, r2SCAN double-hybrids, wr2SCAN        
                                                                         
We gratefully acknowledge several colleagues who have allowed us to      
interface, adapt or use parts of their codes:                            
  Ed Valeev, F. Pavosevic, A. Kumar             : LibInt (2-el integral package), F12 methods 
  Garnet Chan, S. Sharma, J. Yang, R. Olivares  : DMRG                   
  Ulf Ekstrom                                   : XCFun DFT Library      
  Mihaly Kallay                                 : mrcc  (arbitrary order and MRCC methods)
  Frank Weinhold                                : gennbo (NPA and NBO analysis)           
  Simon Mueller                                 : openCOSMO-RS                            
  Christopher J. Cramer and Donald G. Truhlar   : smd solvation model                     
  S Lehtola, MJT Oliveira, MAL Marques          : LibXC Library                           
  Liviu Ungur et al                             : ANISO software                          


 Your calculation uses the libint2 library for the computation of 2-el integrals
 For citations please refer to: http://libint.valeyev.net

 Your ORCA version has been built with support for libXC version: 7.0.0
 For citations please refer to: https://libxc.gitlab.io

 This ORCA versions uses:
   CBLAS   interface :  Fast vector & matrix operations
   LAPACKE interface :  Fast linear algebra routines
   SCALAPACK package :  Parallel linear algebra routines
   Shared memory     :  Shared parallel matrices
   BLAS/LAPACK       :  OpenBLAS 0.3.29  USE64BITINT DYNAMIC_ARCH NO_AFFINITY Cooperlake SINGLE_THREADED
        Core in use  :  Cooperlake
   Copyright (c) 2011-2014, The OpenBLAS Project


  ***********************************
  * Starting time: Sat May  9 01:10:08 2026
  * Host name:     cs-n0180
  * Process ID:    980276
  * Working dir.:  /mnt/lustre/e1000/home/ec293/ec293/iitprince/joey_project/cam/NEW
  ***********************************

NOTE: MaxCore=20000 MB was set to SCF,MP2,MDCI,CIPSI,MRCI,RASCI and CIS
      => If you want to overwrite this, your respective input block should be placed after the MaxCore statement


***************************************
The coordinates will be read from file: THDBA-PyBTM.xyz
***************************************


Your calculation utilizes the atom-pairwise dispersion correction
based on EEQ partial charges (D4)


XCFun DFT library Copyright 2009-2010 Ulf Ekstrom and contributors.
See http://admol.org/xcfun for more information.
This is free software; see the source code for copying conditions.
There is ABSOLUTELY NO WARRANTY; not even for MERCHANTABILITY or FITNESS FOR A PARTICULAR PURPOSE.
For details see the documentation.
Scientific users of this library should cite U. Ekstrom, L. Visscher, R. Bast, A. J. Thorvaldsen and K. Ruud;
J.Chem.Theor.Comp. 2010, DOI: 10.1021/ct100117s
XCFun Version 0.99 

Warning: RI is on but no J-basis has been assigned. Assigning Def2/J (nothing to worry about!)
================================================================================

----- Orbital basis set information -----
Your calculation utilizes the basis: 6-31G(d,p)
   H-He, Li-Ne : W. J. Hehre, R. Ditchfield and J.A. Pople, J. Chem. Phys. 56, 2257 (1972).
                 Note: He and Ne are unpublished basis sets taken from the Gaussian program.
                 Note: Li and B from J. D. Dill and J. A. Pople, J. Chem. Phys. 62, 2921 (1975).
   Na - Ar     : M. M. Francl, W. J. Pietro, W. J. Hehre, J. S. Binkley, M. S. Gordon, 
                 D. J. DeFrees and J. A. Pople, J. Chem. Phys. 77, 3654 (1982).
   K - Zn      : V. A. Rassolov, J. A. Pople, M. A. Ratner, and T. L. Windus, J. Chem. Phys. 109, 1223 (1998).

----- AuxJ basis set information -----
Your calculation utilizes the auxiliary basis: def2/J
   H-Rn: F. Weigend, Phys. Chem. Chem. Phys. 8, 1057 (2006).
   Fr-Lr: K. Eichkorn, F. Weigend, O. Treutler, R. Ahlrichs; Theor. Chem. Acc. 97, 119 (1997).

================================================================================
                                        WARNINGS
                       Please study these warnings very carefully!
================================================================================


WARNING: CIS/ROCIS methods need fully converged wavefunctions
  ===> : Setting SCFConvForced true
         You can overwrite this default with %scf ConvForced false 


================================================================================
                                       INPUT FILE
================================================================================
NAME = THDBA-PyBTM.inp
|  1> ! UKS CAM-B3LYP 6-31G(d,p) RIJCOSX D4 TightSCF
|  2> %PAL NPROCS 24 END
|  3> 
|  4> %tddft
|  5>  Nroots 50
|  6> end
|  7> 
|  8> %scf
|  9>  MaxIter 1500
| 10>  FlipSpin 99
| 11>  FinalMs 0
| 12> end
| 13> 
| 14> %Maxcore 20000
| 15> 
| 16> *xyzfile 0 1 THDBA-PyBTM.xyz
| 17> 
| 18>                          ****END OF INPUT****
================================================================================

                       ****************************
                       * Single Point Calculation *
                       ****************************

---------------------------------
CARTESIAN COORDINATES (ANGSTROEM)
---------------------------------
  Cl    -2.866086   -5.376278    0.390651
  Cl     0.516808    1.042482    1.116301
  Cl    -5.041337    0.163974   -0.252261
  Cl    -1.231027   -2.140977    3.004752
  Cl    -2.540198    4.235529    0.134327
  Cl     1.538583    1.599092   -2.525916
  Cl    -4.992414   -2.661793    3.039675
  Cl     0.097616    5.213452   -3.231218
  Cl    -3.588204    0.498640   -3.577360
  Cl     0.437825    5.126591    2.249690
  Cl    -3.906884   -2.921734   -2.352835
  Cl    -2.649075    2.994757    3.641693
  Cl    -0.369261    9.757920   -0.378516
  Cl    -8.647535   -4.560416   -0.418355
  N     -0.503205   -4.663689   -0.397176
  N      3.075324    1.463167    0.878126
  N      5.559024   -2.674442   -0.082616
  C     -1.661642   -4.163420   -0.048317
  C      4.203159    2.168197    0.642879
  C      0.536590   -3.845037   -0.660620
  C     -1.945873   -2.774826    0.069802
  C      1.824477   -4.509071   -0.939131
  C      5.491448    0.057681    0.620075
  H      4.559849   -0.471257    0.469183
  C      5.481706    1.448208    0.773313
  C      3.041579   -3.904677   -0.604331
  H      3.070055   -2.920631   -0.151167
  C      4.250772   -4.585819   -0.775781
  C      4.254725   -5.878811   -1.336450
  C      6.687873   -0.659203    0.616683
  C     -4.489930   -2.794390    0.335345
  C      6.702267    2.114633    0.971670
  H      6.721215    3.187637    1.131960
  C     -3.073282   -0.941310    1.333413
  C      7.895963    1.400583    0.988154
  H      8.834194    1.925911    1.143739
  C      0.371078   -2.450326   -0.630777
  H      1.188301   -1.785914   -0.886084
  C     -0.860945   -1.934779   -0.277761
  H     -1.010539   -0.862134   -0.262787
  C     -3.869757    0.193496    1.052446
  C     -0.508210    2.913732   -1.186996
  C      3.038566   -6.469770   -1.685094
  H      3.036678   -7.468699   -2.112548
  C      1.911895    1.995341    0.611654
  C      1.712528    3.269865    0.015971
  C      1.835197   -5.808058   -1.473887
  H      0.889757   -6.284747   -1.704636
  C      6.685565   -2.119481    0.383044
  C      4.125972    3.506092    0.219524
  H      5.026032    4.086484    0.058666
  C      7.911975    0.017194    0.795028
  C      7.807294   -4.234245    0.378194
  C      5.527164   -3.991120   -0.322032
  C     -1.906704    3.091517   -1.032784
  C      6.647774   -4.823822   -0.118602
  C     -2.854332    2.364791   -1.742662
  H     -3.908650    2.544427   -1.587854
  C      2.891655    4.041512   -0.092133
  H      2.820738    5.042882   -0.501498
  C     -1.065560    1.139791   -2.814540
  H     -0.730075    0.391781   -3.520417
  C     -2.422552    1.392333   -2.638125
  C     -0.139384    1.898658   -2.110137
  C     -2.170519   -0.785950    2.417936
  C      6.533682   -6.303966   -0.388368
  H      7.521677   -6.730784   -0.589243
  H      6.149910   -6.803392    0.513037
  C      5.576009   -6.576782   -1.553705
  H      5.422109   -7.652232   -1.682591
  H      6.031613   -6.206583   -2.483483
  C     -2.033086    0.402473    3.124723
  H     -1.328522    0.470987    3.942446
  C      0.260344    5.229320   -0.487155
  C      7.848059   -2.868812    0.648865
  C     -5.424231   -3.000588    1.375365
  C     -3.758594    1.393906    1.746510
  H     -4.374750    2.240045    1.477013
  C      0.053660    5.986932   -1.658838
  C      9.204988   -0.758621    0.703527
  H     10.004908   -0.229094    1.230265
  C     -0.143063    7.364935   -1.643770
  H     -0.290341    7.907313   -2.568231
  C     -2.825238    1.490681    2.772200
  C     -4.928395   -3.177104   -0.954905
  C     -0.125490    8.026430   -0.420709
  C     -6.184957   -3.714752   -1.198953
  H     -6.479352   -3.980635   -2.205375
  C      0.273224    5.962195    0.721963
  C      9.048763   -2.181637    1.251212
  C      0.084397    7.338196    0.771419
  H      0.081070    7.856966    1.720859
  C     -6.690555   -3.534843    1.164146
  H     -7.365081   -3.687447    1.996012
  C     -7.058504   -3.887057   -0.129323
  H      8.686675   -4.847627    0.563551
  H      9.955464   -2.767043    1.068458
  H      8.919188   -2.131936    2.342000
  H      9.506806   -0.814525   -0.352653
  C     -3.171556   -2.198212    0.573741
  C      0.465891    3.768449   -0.507527

----------------------------
CARTESIAN COORDINATES (A.U.)
----------------------------
  NO LB      ZA    FRAG     MASS         X           Y           Z
   0 Cl   17.0000    0    35.453   -5.416118  -10.159693    0.738223
   1 Cl   17.0000    0    35.453    0.976626    1.970005    2.109503
   2 Cl   17.0000    0    35.453   -9.526746    0.309866   -0.476704
   3 Cl   17.0000    0    35.453   -2.326304   -4.045860    5.678158
   4 Cl   17.0000    0    35.453   -4.800279    8.003990    0.253841
   5 Cl   17.0000    0    35.453    2.907501    3.021846   -4.773289
   6 Cl   17.0000    0    35.453   -9.434295   -5.030060    5.744153
   7 Cl   17.0000    0    35.453    0.184468    9.851996   -6.106117
   8 Cl   17.0000    0    35.453   -6.780723    0.942293   -6.760231
   9 Cl   17.0000    0    35.453    0.827369    9.687853    4.251298
  10 Cl   17.0000    0    35.453   -7.382941   -5.521277   -4.446214
  11 Cl   17.0000    0    35.453   -5.006026    5.659271    6.881802
  12 Cl   17.0000    0    35.453   -0.697802   18.439796   -0.715292
  13 Cl   17.0000    0    35.453  -16.341473   -8.617937   -0.790576
  14 N     7.0000    0    14.007   -0.950920   -8.813095   -0.750554
  15 N     7.0000    0    14.007    5.811520    2.764985    1.659418
  16 N     7.0000    0    14.007   10.505033   -5.053963   -0.156122
  17 C     6.0000    0    12.011   -3.140048   -7.867724   -0.091306
  18 C     6.0000    0    12.011    7.942819    4.097299    1.214865
  19 C     6.0000    0    12.011    1.014008   -7.266067   -1.248391
  20 C     6.0000    0    12.011   -3.677167   -5.243661    0.131907
  21 C     6.0000    0    12.011    3.447762   -8.520909   -1.774700
  22 C     6.0000    0    12.011   10.377333    0.109001    1.171772
  23 H     1.0000    0     1.008    8.616866   -0.890547    0.886627
  24 C     6.0000    0    12.011   10.358923    2.736717    1.461350
  25 C     6.0000    0    12.011    5.747751   -7.378770   -1.142020
  26 H     1.0000    0     1.008    5.801563   -5.519193   -0.285664
  27 C     6.0000    0    12.011    8.032795   -8.665942   -1.466014
  28 C     6.0000    0    12.011    8.040265  -11.109343   -2.525524
  29 C     6.0000    0    12.011   12.638248   -1.245713    1.165362
  30 C     6.0000    0    12.011   -8.484738   -5.280632    0.633710
  31 C     6.0000    0    12.011   12.665449    3.996077    1.836190
  32 H     1.0000    0     1.008   12.701256    6.023761    2.139094
  33 C     6.0000    0    12.011   -5.807661   -1.778818    2.519785
  34 C     6.0000    0    12.011   14.921208    2.646718    1.867340
  35 H     1.0000    0     1.008   16.694207    3.639444    2.161353
  36 C     6.0000    0    12.011    0.701236   -4.630445   -1.191996
  37 H     1.0000    0     1.008    2.245563   -3.374888   -1.674456
  38 C     6.0000    0    12.011   -1.626950   -3.656202   -0.524892
  39 H     1.0000    0     1.008   -1.909642   -1.629197   -0.496595
  40 C     6.0000    0    12.011   -7.312781    0.365654    1.988835
  41 C     6.0000    0    12.011   -0.960378    5.506156   -2.243097
  42 C     6.0000    0    12.011    5.742058  -12.226093   -3.184366
  43 H     1.0000    0     1.008    5.738490  -14.113796   -3.992137
  44 C     6.0000    0    12.011    3.612958    3.770648    1.155859
  45 C     6.0000    0    12.011    3.236209    6.179149    0.030181
  46 C     6.0000    0    12.011    3.468020  -10.975639   -2.785243
  47 H     1.0000    0     1.008    1.681397  -11.876451   -3.221295
  48 C     6.0000    0    12.011   12.633887   -4.005239    0.723848
  49 C     6.0000    0    12.011    7.796957    6.625554    0.414840
  50 H     1.0000    0     1.008    9.497824    7.722336    0.110863
  51 C     6.0000    0    12.011   14.951466    0.032492    1.502385
  52 C     6.0000    0    12.011   14.753648   -8.001563    0.714683
  53 C     6.0000    0    12.011   10.444826   -7.542124   -0.608552
  54 C     6.0000    0    12.011   -3.603148    5.842120   -1.951679
  55 C     6.0000    0    12.011   12.562472   -9.115702   -0.224125
  56 C     6.0000    0    12.011   -5.393906    4.468807   -3.293154
  57 H     1.0000    0     1.008   -7.386278    4.808270   -3.000609
  58 C     6.0000    0    12.011    5.464436    7.637351   -0.174106
  59 H     1.0000    0     1.008    5.330422    9.529666   -0.947694
  60 C     6.0000    0    12.011   -2.013617    2.153893   -5.318710
  61 H     1.0000    0     1.008   -1.379642    0.740359   -6.652624
  62 C     6.0000    0    12.011   -4.577960    2.631128   -4.985334
  63 C     6.0000    0    12.011   -0.263398    3.587944   -3.987581
  64 C     6.0000    0    12.011   -4.101686   -1.485230    4.569237
  65 C     6.0000    0    12.011   12.346870  -11.912769   -0.733909
  66 H     1.0000    0     1.008   14.213910  -12.719338   -1.113508
  67 H     1.0000    0     1.008   11.621646  -12.856548    0.969499
  68 C     6.0000    0    12.011   10.537130  -12.428317   -2.936077
  69 H     1.0000    0     1.008   10.246301  -14.460623   -3.179636
  70 H     1.0000    0     1.008   11.398097  -11.728742   -4.693103
  71 C     6.0000    0    12.011   -3.841976    0.760564    5.904871
  72 H     1.0000    0     1.008   -2.510543    0.890036    7.450143
  73 C     6.0000    0    12.011    0.491979    9.881983   -0.920590
  74 C     6.0000    0    12.011   14.830682   -5.421269    1.226177
  75 C     6.0000    0    12.011  -10.250311   -5.670290    2.599063
  76 C     6.0000    0    12.011   -7.102713    2.634101    3.300426
  77 H     1.0000    0     1.008   -8.267079    4.233072    2.791150
  78 C     6.0000    0    12.011    0.101403   11.313662   -3.134750
  79 C     6.0000    0    12.011   17.394906   -1.433586    1.329473
  80 H     1.0000    0     1.008   18.906536   -0.432925    2.324864
  81 C     6.0000    0    12.011   -0.270350   13.917710   -3.106275
  82 H     1.0000    0     1.008   -0.548665   14.942656   -4.853253
  83 C     6.0000    0    12.011   -5.338926    2.816979    5.238699
  84 C     6.0000    0    12.011   -9.313317   -6.003856   -1.804509
  85 C     6.0000    0    12.011   -0.237142   15.167755   -0.795025
  86 C     6.0000    0    12.011  -11.687875   -7.019864   -2.265693
  87 H     1.0000    0     1.008  -12.244201   -7.522310   -4.167555
  88 C     6.0000    0    12.011    0.516319   11.266916    1.364312
  89 C     6.0000    0    12.011   17.099684   -4.122696    2.364448
  90 C     6.0000    0    12.011    0.159487   13.867181    1.457771
  91 H     1.0000    0     1.008    0.153200   14.847514    3.251952
  92 C     6.0000    0    12.011  -12.643317   -6.679885    2.199917
  93 H     1.0000    0     1.008  -13.917986   -6.968265    3.771916
  94 C     6.0000    0    12.011  -13.338639   -7.345473   -0.244385
  95 H     1.0000    0     1.008   16.415437   -9.160687    1.064957
  96 H     1.0000    0     1.008   18.813100   -5.228953    2.019093
  97 H     1.0000    0     1.008   16.854823   -4.028775    4.425739
  98 H     1.0000    0     1.008   17.965260   -1.539229   -0.666418
  99 C     6.0000    0    12.011   -5.993372   -4.154019    1.084213
 100 C     6.0000    0    12.011    0.880406    7.121337   -0.959087

--------------------------------
INTERNAL COORDINATES (ANGSTROEM)
--------------------------------
 Cl     0   0   0     0.000000000000     0.00000000     0.00000000
 Cl     1   0   0     7.291846108863     0.00000000     0.00000000
 Cl     2   1   0     5.791175536533    52.96434437     0.00000000
 Cl     2   1   3     4.093358715200    33.19864868   101.24548994
 Cl     2   1   3     4.528256592213   106.61459723   357.92146387
 Cl     2   1   3     3.823556396578    99.05162882   273.00362739
 Cl     4   2   1     3.797433486653   122.26564427   286.64596742
 Cl     6   2   1     3.954419681305   101.86325695   127.28233608
 Cl     3   2   1     3.644156995389    79.57112888   265.17714899
 Cl     5   2   1     3.759969826760    60.68616804   157.51633417
 Cl     9   3   2     3.646913313735    64.70057055    94.47896670
 Cl     5   2   1     3.721959915833    65.18611729    83.84573016
 Cl    10   5   2     5.385913376213    79.07988352   147.31389027
 Cl    11   9   3     5.375989534153   118.93122567    50.69483293
 N      1   2   3     2.590687376935    50.58037051   138.62701652
 N      2   1   3     2.603787111518   126.08471203   203.58671838
 N     16   2   1     4.920528337226   112.20908854   359.04884322
 C     15   1   2     1.309178351949    38.46598240   339.31472993
 C     16   2   1     1.350711012443   157.03450691   155.62718278
 C     15   1   2     1.349358173453   158.29083743   350.91402542
 C     18  15   1     1.422298371073   124.89179646   175.87349563
 C     20  15   1     1.475521079160   115.87513271   166.96853362
 C     19  16   2     2.472748745059    89.49161553   190.95537728
 H     23  19  16     1.081859741514    88.27785447    18.07316127
 C     23  19  16     1.398978959433    31.46142312   201.26901734
 C     22  20  15     1.399542934547   121.30229261   211.04035491
 H     26  22  20     1.083750443408   120.99745652   358.58676966
 C     26  22  20     1.398390946021   120.81732745   174.92939194
 C     28  26  22     1.409323832848   119.87335201     2.28201171
 C     23  19  16     1.394764121902   152.32783543   190.74331230
 C     21  18  15     2.557952668482   101.53156977   169.58593509
 C     25  23  19     1.404719521753   118.74870015   183.51154838
 H     32  25  23     1.085075801417   120.34284224   182.38114834
 C     21  18  15     2.495905594140   148.15889581   220.43499948
 C     32  25  23     1.391060482212   120.24960226     1.22679753
 H     35  32  25     1.086486819603   119.63874292   180.08470489
 C     20  15   1     1.404814436256   120.49066275   348.41349320
 H     37  20  15     1.083733547382   120.98535804   182.88005227
 C     37  20  15     1.381408584740   118.75239050     2.41861024
 H     39  37  20     1.083129669770   119.75559928   180.84755959
 C     34  21  18     1.414602254469   137.99450592   225.38417914
 C      5   2   1     2.760800067314    43.05537779   262.86018300
 C     29  28  26     1.396362378360   119.02336556   358.60141130
 H     43  29  28     1.086544814401   119.26343072   180.33622017
 C     16   2   1     1.306821920195    37.78192822   142.09317778
 C     45  16   2     1.420914094431   125.14655283   177.24145788
 C     43  29  28     1.389448854026   120.98428380   359.32185159
 H     47  43  29     1.083667060181   120.91363819   182.69664990
 C     17  16   2     1.339371334545    90.47294083   201.97893488
 C     19  16   2     1.405400412701   120.23203859   355.79257453
 H     50  19  16     1.082976534108   120.61581818   178.09487009
 C     35  32  25     1.396896260050   121.10097356     0.70016380
 C     49  17  16     2.393851759746    91.56924793   168.50673157
 C     17  16   2     1.338647091783   148.21103797     2.54427873
 C     42   5   2     1.418158776444    33.08386517   108.51213180
 C     53  49  17     1.392441716893    89.11574096     0.55086378
 C     55  42   5     1.389264654536   123.47051232   182.05543978
 H     57  55  42     1.080657695334   120.35319503   180.23429772
 C     50  19  16     1.381065935623   119.08640458   352.97989486
 H     59  50  19     1.084135969800   120.11660822   185.28179954
 C     57  55  42     2.418522837367    89.25054836     1.44038115
 H     61  57  55     1.081818600531   150.31513535   181.84048291
 C     57  55  42     1.390669807874   118.88331973     1.15914092
 C     61  57  55     1.389195700063    89.52372151   358.95657888
 C     34  21  18     1.419615406122   100.36493370    77.80383060
 C     56  53  49     1.508846228068   122.82761813   181.52959123
 H     66  56  53     1.094832631398   110.30385321   334.11902246
 H     66  56  53     1.099653696163   108.98736018    91.01491969
 C     29  28  26     1.510018099402   118.93157875   178.01946606
 H     69  29  28     1.094024457449   110.37959573   161.91539604
 H     69  29  28     1.099595122625   109.18319418   279.06864988
 C     65  34  21     1.389526869041   123.03041414   154.29092795
 H     72  65  34     1.081561603895   120.21067273   180.16254765
 C     46  45  16     2.490268667987   150.72691895   198.74228817
 C     53  49  17     1.392598956252    31.47603096   181.29364298
 C     31  21  18     1.413179951105   137.31203702    81.67742778
 C     41  34  21     1.391066575245   123.24130260   217.65788160
 H     77  41  34     1.080845991187   120.37064543   178.51149050
 C     74  46  45     1.410508869483   132.52461348   223.59433094
 C     52  35  32     1.510676658122   121.78773011   175.19968760
 H     80  52  35     1.094405670112   110.36314654    25.26891687
 C     79  74  46     1.392055764458   122.91631339   217.34778140
 H     82  79  74     1.081893176191   120.41441118   179.52507679
 C     77  41  34     1.390165025981   118.80668625   359.72457491
 C     31  21  18     1.415438668583   102.44657741   289.59405482
 C     82  79  74     1.390597948753   118.59552675     0.48540097
 C     85  31  21     1.388370576630   123.04546807   159.62620530
 H     87  85  31     1.081779750133   120.33255306   179.22347275
 C     74  46  45     1.413944128298   103.28268554    78.45181292
 C     75  53  49     1.508880871590   123.19022591   177.74726249
 C     89  74  46     1.389777062649   122.84544496   152.68238599
 H     91  89  74     1.081928692396   120.42294574   178.70319036
 C     76  31  21     1.390546059633   123.11662497   210.09975984
 H     93  76  31     1.081792192359   120.34590110   179.06979250
 C     93  76  31     1.390145036447   118.66684911     0.14278777
 H     53  49  17     1.088074279879   151.20823835   180.58371649
 H     90  75  53     1.094625923662   110.42218149    22.68557614
 H     90  75  53     1.099580979724   108.83364126   265.87609638
 H     80  52  35     1.099879791041   108.61078387   268.71048265
 C     21  18  15     1.445246358655   126.01205890   186.30003913
 C     46  45  16     1.441089855224   125.73231110   167.86214682

---------------------------
INTERNAL COORDINATES (A.U.)
---------------------------
 Cl     0   0   0     0.000000000000     0.00000000     0.00000000
 Cl     1   0   0    13.779592156450     0.00000000     0.00000000
 Cl     2   1   0    10.943735757511    52.96434437     0.00000000
 Cl     2   1   3     7.735326939628    33.19864868   101.24548994
 Cl     2   1   3     8.557164823406   106.61459723   357.92146387
 Cl     2   1   3     7.225474447136    99.05162882   273.00362739
 Cl     4   2   1     7.176109301556   122.26564427   286.64596742
 Cl     6   2   1     7.472770216255   101.86325695   127.28233608
 Cl     3   2   1     6.886458710299    79.57112888   265.17714899
 Cl     5   2   1     7.105313244383    60.68616804   157.51633417
 Cl     9   3   2     6.891667397111    64.70057055    94.47896670
 Cl     5   2   1     7.033484922357    65.18611729    83.84573016
 Cl    10   5   2    10.177901262066    79.07988352   147.31389027
 Cl    11   9   3    10.159147918376   118.93122567    50.69483293
 N      1   2   3     4.895689641014    50.58037051   138.62701652
 N      2   1   3     4.920444551802   126.08471203   203.58671838
 N     16   2   1     9.298450991556   112.20908854   359.04884322
 C     15   1   2     2.473988545641    38.46598240   339.31472993
 C     16   2   1     2.552473899588   157.03450691   155.62718278
 C     15   1   2     2.549917404395   158.29083743   350.91402542
 C     18  15   1     2.687754402051   124.89179646   175.87349563
 C     20  15   1     2.788330744441   115.87513271   166.96853362
 C     19  16   2     4.672817926160    89.49161553   190.95537728
 H     23  19  16     2.044418626777    88.27785447    18.07316127
 C     23  19  16     2.643687100447    31.46142312   201.26901734
 C     22  20  15     2.644752858958   121.30229261   211.04035491
 H     26  22  20     2.047991535558   120.99745652   358.58676966
 C     26  22  20     2.642575916134   120.81732745   174.92939194
 C     28  26  22     2.663236078091   119.87335201     2.28201171
 C     23  19  16     2.635722211814   152.32783543   190.74331230
 C     21  18  15     4.833830006964   101.53156977   169.58593509
 C     25  23  19     2.654535191087   118.74870015   183.51154838
 H     32  25  23     2.050496099223   120.34284224   182.38114834
 C     21  18  15     4.716578029046   148.15889581   220.43499948
 C     32  25  23     2.628723347101   120.24960226     1.22679753
 H     35  32  25     2.053162537164   119.63874292   180.08470489
 C     20  15   1     2.654714553503   120.49066275   348.41349320
 H     37  20  15     2.047959606696   120.98535804   182.88005227
 C     37  20  15     2.610483904207   118.75239050     2.41861024
 H     39  37  20     2.046818443391   119.75559928   180.84755959
 C     34  21  18     2.673210849375   137.99450592   225.38417914
 C      5   2   1     5.217156037735    43.05537779   262.86018300
 C     29  28  26     2.638742478811   119.02336556   358.60141130
 H     43  29  28     2.053272131450   119.26343072   180.33622017
 C     16   2   1     2.469535534973    37.78192822   142.09317778
 C     45  16   2     2.685138498304   125.14655283   177.24145788
 C     43  29  28     2.625677811200   120.98428380   359.32185159
 H     47  43  29     2.047833964094   120.91363819   182.69664990
 C     17  16   2     2.531045013915    90.47294083   201.97893488
 C     19  16   2     2.655821888504   120.23203859   355.79257453
 H     50  19  16     2.046529058927   120.61581818   178.09487009
 C     35  32  25     2.639751368993   121.10097356     0.70016380
 C     49  17  16     4.523724231125    91.56924793   168.50673157
 C     17  16   2     2.529676393441   148.21103797     2.54427873
 C     42   5   2     2.679931701896    33.08386517   108.51213180
 C     53  49  17     2.631333502376    89.11574096     0.55086378
 C     55  42   5     2.625329724610   123.47051232   182.05543978
 H     57  55  42     2.042147088695   120.35319503   180.23429772
 C     50  19  16     2.609836391215   119.08640458   352.97989486
 H     59  50  19     2.048720074855   120.11660822   185.28179954
 C     57  55  42     4.570345811259    89.25054836     1.44038115
 H     61  57  55     2.044340881585   150.31513535   181.84048291
 C     57  55  42     2.627985079595   118.88331973     1.15914092
 C     61  57  55     2.625199419540    89.52372151   358.95657888
 C     34  21  18     2.682684333065   100.36493370    77.80383060
 C     56  53  49     2.851306149249   122.82761813   181.52959123
 H     66  56  53     2.068933835823   110.30385321   334.11902246
 H     66  56  53     2.078044327902   108.98736018    91.01491969
 C     29  28  26     2.853520665134   118.93157875   178.01946606
 H     69  29  28     2.067406608390   110.37959573   161.91539604
 H     69  29  28     2.077933639957   109.18319418   279.06864988
 C     65  34  21     2.625825238213   123.03041414   154.29092795
 H     72  65  34     2.043855228327   120.21067273   180.16254765
 C     46  45  16     4.705925782380   150.72691895   198.74228817
 C     53  49  17     2.631630641701    31.47603096   181.29364298
 C     31  21  18     2.670523085537   137.31203702    81.67742778
 C     41  34  21     2.628734861266   123.24130260   217.65788160
 H     77  41  34     2.042502916291   120.37064543   178.51149050
 C     74  46  45     2.665475472789   132.52461348   223.59433094
 C     52  35  32     2.854765160758   121.78773011   175.19968760
 H     80  52  35     2.068126995922   110.36314654    25.26891687
 C     79  74  46     2.630604157973   122.91631339   217.34778140
 H     82  79  74     2.044481809160   120.41441118   179.52507679
 C     77  41  34     2.627031180060   118.80668625   359.72457491
 C     31  21  18     2.674791442985   102.44657741   289.59405482
 C     82  79  74     2.627849285535   118.59552675     0.48540097
 C     85  31  21     2.623640162225   123.04546807   159.62620530
 H     87  85  31     2.044267464973   120.33255306   179.22347275
 C     74  46  45     2.671967171150   103.28268554    78.45181292
 C     75  53  49     2.851371616017   123.19022591   177.74726249
 C     89  74  46     2.626298035613   122.84544496   152.68238599
 H     91  89  74     2.044548925059   120.42294574   178.70319036
 C     76  31  21     2.627751229310   123.11662497   210.09975984
 H     93  76  31     2.044290977372   120.34590110   179.06979250
 C     93  76  31     2.626993405315   118.66684911     0.14278777
 H     53  49  17     2.056162402335   151.20823835   180.58371649
 H     90  75  53     2.068543214812   110.42218149    22.68557614
 H     90  75  53     2.077906913746   108.83364126   265.87609638
 H     80  52  35     2.078471585302   108.61078387   268.71048265
 C     21  18  15     2.731119813905   126.01205890   186.30003913
 C     46  45  16     2.723265160745   125.73231110   167.86214682

---------------------
BASIS SET INFORMATION
---------------------
There are 4 groups of distinct atoms

 Group   1 Type Cl  : 16s10p1d contracted to 4s3p1d pattern {6631/631/1}
 Group   2 Type N   : 10s4p1d contracted to 3s2p1d pattern {631/31/1}
 Group   3 Type C   : 10s4p1d contracted to 3s2p1d pattern {631/31/1}
 Group   4 Type H   : 4s1p contracted to 2s1p pattern {31/1}

Atom   0Cl   basis set group =>   1
Atom   1Cl   basis set group =>   1
Atom   2Cl   basis set group =>   1
Atom   3Cl   basis set group =>   1
Atom   4Cl   basis set group =>   1
Atom   5Cl   basis set group =>   1
Atom   6Cl   basis set group =>   1
Atom   7Cl   basis set group =>   1
Atom   8Cl   basis set group =>   1
Atom   9Cl   basis set group =>   1
Atom  10Cl   basis set group =>   1
Atom  11Cl   basis set group =>   1
Atom  12Cl   basis set group =>   1
Atom  13Cl   basis set group =>   1
Atom  14N    basis set group =>   2
Atom  15N    basis set group =>   2
Atom  16N    basis set group =>   2
Atom  17C    basis set group =>   3
Atom  18C    basis set group =>   3
Atom  19C    basis set group =>   3
Atom  20C    basis set group =>   3
Atom  21C    basis set group =>   3
Atom  22C    basis set group =>   3
Atom  23H    basis set group =>   4
Atom  24C    basis set group =>   3
Atom  25C    basis set group =>   3
Atom  26H    basis set group =>   4
Atom  27C    basis set group =>   3
Atom  28C    basis set group =>   3
Atom  29C    basis set group =>   3
Atom  30C    basis set group =>   3
Atom  31C    basis set group =>   3
Atom  32H    basis set group =>   4
Atom  33C    basis set group =>   3
Atom  34C    basis set group =>   3
Atom  35H    basis set group =>   4
Atom  36C    basis set group =>   3
Atom  37H    basis set group =>   4
Atom  38C    basis set group =>   3
Atom  39H    basis set group =>   4
Atom  40C    basis set group =>   3
Atom  41C    basis set group =>   3
Atom  42C    basis set group =>   3
Atom  43H    basis set group =>   4
Atom  44C    basis set group =>   3
Atom  45C    basis set group =>   3
Atom  46C    basis set group =>   3
Atom  47H    basis set group =>   4
Atom  48C    basis set group =>   3
Atom  49C    basis set group =>   3
Atom  50H    basis set group =>   4
Atom  51C    basis set group =>   3
Atom  52C    basis set group =>   3
Atom  53C    basis set group =>   3
Atom  54C    basis set group =>   3
Atom  55C    basis set group =>   3
Atom  56C    basis set group =>   3
Atom  57H    basis set group =>   4
Atom  58C    basis set group =>   3
Atom  59H    basis set group =>   4
Atom  60C    basis set group =>   3
Atom  61H    basis set group =>   4
Atom  62C    basis set group =>   3
Atom  63C    basis set group =>   3
Atom  64C    basis set group =>   3
Atom  65C    basis set group =>   3
Atom  66H    basis set group =>   4
Atom  67H    basis set group =>   4
Atom  68C    basis set group =>   3
Atom  69H    basis set group =>   4
Atom  70H    basis set group =>   4
Atom  71C    basis set group =>   3
Atom  72H    basis set group =>   4
Atom  73C    basis set group =>   3
Atom  74C    basis set group =>   3
Atom  75C    basis set group =>   3
Atom  76C    basis set group =>   3
Atom  77H    basis set group =>   4
Atom  78C    basis set group =>   3
Atom  79C    basis set group =>   3
Atom  80H    basis set group =>   4
Atom  81C    basis set group =>   3
Atom  82H    basis set group =>   4
Atom  83C    basis set group =>   3
Atom  84C    basis set group =>   3
Atom  85C    basis set group =>   3
Atom  86C    basis set group =>   3
Atom  87H    basis set group =>   4
Atom  88C    basis set group =>   3
Atom  89C    basis set group =>   3
Atom  90C    basis set group =>   3
Atom  91H    basis set group =>   4
Atom  92C    basis set group =>   3
Atom  93H    basis set group =>   4
Atom  94C    basis set group =>   3
Atom  95H    basis set group =>   4
Atom  96H    basis set group =>   4
Atom  97H    basis set group =>   4
Atom  98H    basis set group =>   4
Atom  99C    basis set group =>   3
Atom 100C    basis set group =>   3
---------------------------------
AUXILIARY/J BASIS SET INFORMATION
---------------------------------
There are 4 groups of distinct atoms

 Group   1 Type Cl  : 14s5p5d2f1g contracted to 8s4p3d1f1g pattern {71111111/2111/311/2/1}
 Group   2 Type N   : 12s5p4d2f1g contracted to 6s4p3d1f1g pattern {711111/2111/211/2/1}
 Group   3 Type C   : 12s5p4d2f1g contracted to 6s4p3d1f1g pattern {711111/2111/211/2/1}
 Group   4 Type H   : 5s2p1d contracted to 3s1p1d pattern {311/2/1}

Atom   0Cl   basis set group =>   1
Atom   1Cl   basis set group =>   1
Atom   2Cl   basis set group =>   1
Atom   3Cl   basis set group =>   1
Atom   4Cl   basis set group =>   1
Atom   5Cl   basis set group =>   1
Atom   6Cl   basis set group =>   1
Atom   7Cl   basis set group =>   1
Atom   8Cl   basis set group =>   1
Atom   9Cl   basis set group =>   1
Atom  10Cl   basis set group =>   1
Atom  11Cl   basis set group =>   1
Atom  12Cl   basis set group =>   1
Atom  13Cl   basis set group =>   1
Atom  14N    basis set group =>   2
Atom  15N    basis set group =>   2
Atom  16N    basis set group =>   2
Atom  17C    basis set group =>   3
Atom  18C    basis set group =>   3
Atom  19C    basis set group =>   3
Atom  20C    basis set group =>   3
Atom  21C    basis set group =>   3
Atom  22C    basis set group =>   3
Atom  23H    basis set group =>   4
Atom  24C    basis set group =>   3
Atom  25C    basis set group =>   3
Atom  26H    basis set group =>   4
Atom  27C    basis set group =>   3
Atom  28C    basis set group =>   3
Atom  29C    basis set group =>   3
Atom  30C    basis set group =>   3
Atom  31C    basis set group =>   3
Atom  32H    basis set group =>   4
Atom  33C    basis set group =>   3
Atom  34C    basis set group =>   3
Atom  35H    basis set group =>   4
Atom  36C    basis set group =>   3
Atom  37H    basis set group =>   4
Atom  38C    basis set group =>   3
Atom  39H    basis set group =>   4
Atom  40C    basis set group =>   3
Atom  41C    basis set group =>   3
Atom  42C    basis set group =>   3
Atom  43H    basis set group =>   4
Atom  44C    basis set group =>   3
Atom  45C    basis set group =>   3
Atom  46C    basis set group =>   3
Atom  47H    basis set group =>   4
Atom  48C    basis set group =>   3
Atom  49C    basis set group =>   3
Atom  50H    basis set group =>   4
Atom  51C    basis set group =>   3
Atom  52C    basis set group =>   3
Atom  53C    basis set group =>   3
Atom  54C    basis set group =>   3
Atom  55C    basis set group =>   3
Atom  56C    basis set group =>   3
Atom  57H    basis set group =>   4
Atom  58C    basis set group =>   3
Atom  59H    basis set group =>   4
Atom  60C    basis set group =>   3
Atom  61H    basis set group =>   4
Atom  62C    basis set group =>   3
Atom  63C    basis set group =>   3
Atom  64C    basis set group =>   3
Atom  65C    basis set group =>   3
Atom  66H    basis set group =>   4
Atom  67H    basis set group =>   4
Atom  68C    basis set group =>   3
Atom  69H    basis set group =>   4
Atom  70H    basis set group =>   4
Atom  71C    basis set group =>   3
Atom  72H    basis set group =>   4
Atom  73C    basis set group =>   3
Atom  74C    basis set group =>   3
Atom  75C    basis set group =>   3
Atom  76C    basis set group =>   3
Atom  77H    basis set group =>   4
Atom  78C    basis set group =>   3
Atom  79C    basis set group =>   3
Atom  80H    basis set group =>   4
Atom  81C    basis set group =>   3
Atom  82H    basis set group =>   4
Atom  83C    basis set group =>   3
Atom  84C    basis set group =>   3
Atom  85C    basis set group =>   3
Atom  86C    basis set group =>   3
Atom  87H    basis set group =>   4
Atom  88C    basis set group =>   3
Atom  89C    basis set group =>   3
Atom  90C    basis set group =>   3
Atom  91H    basis set group =>   4
Atom  92C    basis set group =>   3
Atom  93H    basis set group =>   4
Atom  94C    basis set group =>   3
Atom  95H    basis set group =>   4
Atom  96H    basis set group =>   4
Atom  97H    basis set group =>   4
Atom  98H    basis set group =>   4
Atom  99C    basis set group =>   3
Atom 100C    basis set group =>   3


           ************************************************************
           *        Program running with 24 parallel MPI-processes    *
           *              working on a common directory               *
           ************************************************************
------------------------------------------------------------------------------
                             ORCA STARTUP CALCULATIONS
                           -- RI-GTO INTEGRALS CHOSEN --
------------------------------------------------------------------------------
------------------------------------------------------------------------------
                   ___                                                        
                  /   \      - P O W E R E D   B Y -                         
                 /     \                                                     
                 |  |  |   _    _      __       _____    __    __             
                 |  |  |  | |  | |    /  \     |  _  \  |  |  /  |          
                  \  \/   | |  | |   /    \    | | | |  |  | /  /          
                 / \  \   | |__| |  /  /\  \   | |_| |  |  |/  /          
                |  |  |   |  __  | /  /__\  \  |    /   |      \           
                |  |  |   | |  | | |   __   |  |    \   |  |\   \          
                \     /   | |  | | |  |  |  |  | |\  \  |  | \   \       
                 \___/    |_|  |_| |__|  |__|  |_| \__\ |__|  \__/        
                                                                              
                      - O R C A' S   B I G   F R I E N D -                    
                                      &                                       
                       - I N T E G R A L  F E E D E R -                       
                                                                              
 v1 FN, 2020, v2 2021, v3 2022-2024                                           
------------------------------------------------------------------------------


----------------------
SHARK INTEGRAL PACKAGE
----------------------

Number of atoms                             ...    101
Number of basis functions                   ...   1227
Number of shells                            ...    553
Maximum angular momentum                    ...      2
Integral batch strategy                     ... SHARK/LIBINT Hybrid
RI-J (if used) integral strategy            ... SPLIT-RIJ (Revised 2003 algorithm where possible)
Printlevel                                  ...      1
Contraction scheme used                     ... SEGMENTED contraction
Prescreening option                         ... SCHWARTZ
   Thresh                                   ... 2.500e-11
   Tcut                                     ... 2.500e-12
   Tpresel                                  ... 2.500e-12 
Coulomb Range Separation                    ... NOT USED
Exchange Range Separation                   ... Long Range
   Mu parameter                             ... 3.300e-01
   Scaling (regular/separated)              ... 1.900e-01 4.600e-01
Robust (split-)RI terms used:
  metric    (central integrals)             ... YES
  density   (r.h.s.  integrals)             ... YES
  potential (l.h.s.  integrals)             ... YES
Multipole approximations                    ... NOT USED
Finite Nucleus Model                        ... NOT USED
CABS basis                                  ... NOT available
Auxiliary Coulomb fitting basis             ... AVAILABLE
   # of basis functions in Aux-J            ...   3951
   # of shells in Aux-J                     ...   1273
   Maximum angular momentum in Aux-J        ...      4
Auxiliary J/K fitting basis                 ... NOT available
Auxiliary Correlation fitting basis         ... NOT available
Auxiliary 'external' fitting basis          ... NOT available

Checking pre-screening integrals            ... done (  0.0 sec) Dimension = 553
   => SHARK Basis and OBASIS are compatible. Storing Pre-screening
Shell pair information
Shell pair cut-off parameter TPreSel        ...   2.5e-12
Total number of shell pairs                 ...    153181
Shell pairs after pre-screening             ...     55063
Total number of primitive shell pairs       ...   1001046
Primitive shell pairs kept                  ...    162315
          la=0 lb=0:  14276 shell pairs
          la=1 lb=0:  21099 shell pairs
          la=1 lb=1:   7902 shell pairs
          la=2 lb=0:   6238 shell pairs
          la=2 lb=1:   4872 shell pairs
          la=2 lb=2:    676 shell pairs

Checking whether 4 symmetric matrices of dimension 1227 fit in memory
:Max Core in MB      =  20000.00
 MB in use           =     76.66
 MB left             =  19923.34
 MB needed           =     22.99
 Data fit in memory  = YES
Calculating RI/J V-Matrix + Cholesky decomp.... done (  0.7 sec)
Calculating Nuclear repulsion               ... done (  0.0 sec) ENN=  16787.245454526070 Eh

Diagonalization of the overlap matrix:
Smallest eigenvalue                        ... 3.142e-04
Time for diagonalization                   ...    0.106 sec
Threshold for overlap eigenvalues          ... 1.000e-07
Number of eigenvalues below threshold      ... 0
Time for construction of square roots      ...    0.080 sec
Total time needed                          ...    0.195 sec

-------------------
DFT GRID GENERATION
-------------------

General Integration Accuracy     IntAcc      ... 4.388
Radial Grid Type                 RadialGrid  ... OptM3 with GC (2021)
Angular Grid (max. ang.)         AngularGrid ... 4 (Lebedev-302)
Angular grid pruning method      GridPruning ... 4 (adaptive)
Weight generation scheme         WeightScheme... mBecke (2022)
Basis function cutoff            BFCut       ... 1.0000e-11
Integration weight cutoff        WCut        ... 1.0000e-14
Partially contracted basis set               ... off
Rotationally invariant grid construction     ... off
Angular grids for H and He will be reduced by one unit

Total number of grid points                  ...   540554
Total number of batches                      ...     8497
Average number of points per batch           ...       63
Average number of grid points per atom       ...     5352

--------------------
COSX GRID GENERATION
--------------------

GRIDX 1
-------
General Integration Accuracy     IntAcc      ... 3.816
Radial Grid Type                 RadialGrid  ... OptM3 with GC (2021)
Angular Grid (max. ang.)         AngularGrid ... 1 (Lebedev-50)
Angular grid pruning method      GridPruning ... 4 (adaptive)
Weight generation scheme         WeightScheme... mBecke (2022)
Basis function cutoff            BFCut       ... 1.0000e-11
Integration weight cutoff        WCut        ... 1.0000e-14
Partially contracted basis set               ... on
Rotationally invariant grid construction     ... off
Angular grids for H and He will be reduced by one unit

Total number of grid points                  ...    82462
Total number of batches                      ...      705
Average number of points per batch           ...      116
Average number of grid points per atom       ...      816
UseSFitting                                  ... on

GRIDX 2
-------
General Integration Accuracy     IntAcc      ... 4.020
Radial Grid Type                 RadialGrid  ... OptM3 with GC (2021)
Angular Grid (max. ang.)         AngularGrid ... 2 (Lebedev-110)
Angular grid pruning method      GridPruning ... 4 (adaptive)
Weight generation scheme         WeightScheme... mBecke (2022)
Basis function cutoff            BFCut       ... 1.0000e-11
Integration weight cutoff        WCut        ... 1.0000e-14
Partially contracted basis set               ... on
Rotationally invariant grid construction     ... off
Angular grids for H and He will be reduced by one unit

Total number of grid points                  ...   148272
Total number of batches                      ...     1211
Average number of points per batch           ...      122
Average number of grid points per atom       ...     1468
UseSFitting                                  ... on

GRIDX 3
-------
General Integration Accuracy     IntAcc      ... 4.338
Radial Grid Type                 RadialGrid  ... OptM3 with GC (2021)
Angular Grid (max. ang.)         AngularGrid ... 3 (Lebedev-194)
Angular grid pruning method      GridPruning ... 4 (adaptive)
Weight generation scheme         WeightScheme... mBecke (2022)
Basis function cutoff            BFCut       ... 1.0000e-11
Integration weight cutoff        WCut        ... 1.0000e-14
Partially contracted basis set               ... on
Rotationally invariant grid construction     ... off
Angular grids for H and He will be reduced by one unit

Total number of grid points                  ...   331218
Total number of batches                      ...     2642
Average number of points per batch           ...      125
Average number of grid points per atom       ...     3279
UseSFitting                                  ... on
Grids setup in   4.2 sec
Initializing property integral containers    ... done (  0.0 sec)

SHARK setup successfully completed in   6.5 seconds

Maximum memory used throughout the entire STARTUP-calculation: 169.4 MB


           ************************************************************
           *        Program running with 24 parallel MPI-processes    *
           *              working on a common directory               *
           ************************************************************
-------------------------------------------------------------------------------
                                 ORCA GUESS
                   Start orbitals & Density for SCF / CASSCF
-------------------------------------------------------------------------------

------------
SCF SETTINGS
------------
Hamiltonian:
 Density Functional     Method          .... DFT(GTOs)
 Exchange Functional    Exchange        .... WB88
 Correlation Functional Correlation     .... LYP
 LDA part of GGA corr.  LDAOpt          .... VWN-5
 Gradients option       PostSCFGGA      .... off
 Hybrid DFT is turned on
   Fraction HF Exchange ScalHFX         ....  0.190000
   Scaling of DF-GGA-X  ScalDFX         ....  0.350000
   Scaling of DF-GGA-C  ScalDFC         ....  0.810000
   Scaling of DF-LDA-C  ScalLDAC        ....  1.000000
   Perturbative correction              ....  0.000000
 Long-range corrected/Screened/Range-Separated Hybrid DFT is turned on
   Amount of maximum screened exact exchange              ....  0.460000
   Range separation parameter mu (erf(mu*r12)/r12)        ....  0.330000
 RI-approximation to the Coulomb term is turned on
   Number of AuxJ basis functions       .... 3951
   RIJ-COSX (HFX calculated with COS-X)).... on


General Settings:
 Integral files         IntName         .... THDBA-PyBTM
 Hartree-Fock type      HFTyp           .... UHF
 Total Charge           Charge          ....    0
 Multiplicity           Mult            ....    1
 Number of Electrons    NEL             ....  628
 Basis Dimension        Dim             .... 1227
 Nuclear Repulsion      ENuc            ....  16787.2454545261 Eh

Convergence Acceleration:
 AO-DIIS                CNVDIIS         .... on
   Start iteration      DIISMaxIt       ....    12
   Startup error        DIISStart       ....  0.200000
   # of expansion vecs  DIISMaxEq       ....     5
   Bias factor          DIISBfac        ....   1.050
   Max. coefficient     DIISMaxC        ....  10.000
 MO-DIIS                CNVKDIIS        .... off
 Trust-Rad. Augm. Hess. CNVTRAH         .... auto
   Auto Start mean grad. ratio tolernc. ....  1.125000
   Auto Start start iteration           ....    50
   Auto Start num. interpolation iter.  ....    10
   Max. Number of Micro iterations      ....    24
   Max. Number of Macro iterations      .... Maxiter - #DIIS iter
   Number of Davidson start vectors     ....     2
   Converg. threshold    (grad. norm)   ....   1.000e-05
   Grad. Scal. Fac. for Micro threshold ....   0.100
   Minimum threshold for Micro iter.    ....   1.000e-02
   NR start threshold (gradient norm)   ....   1.000e-04
   Initial trust radius                 ....   0.400
   Minimum AH scaling param. (alpha)    ....   1.000
   Maximum AH scaling param. (alpha)    .... 1000.000
   Quad. conv. algorithm                .... NR
   White noise on init. David. guess    .... on
   Maximum white noise                  ....   0.010
   Pseudo random numbers                .... off
   Inactive MOs                         .... canonical
   Orbital update algorithm             .... Taylor
   Preconditioner                       .... Diag
   Full preconditioner red. dimension   ....   250
 SOSCF                 CNVSOSCF           .... on
   Start iteration     SOSCFMaxIt         ....   150
   Startup grad/error  SOSCFStart         ....  0.003300
   Hessian update      SOSCFHessUp        .... L-BFGS
   Autom. constraints  SOSCFAutoConstrain .... off
 Level Shifting         CNVShift        .... on
   Level shift para.    LevelShift      ....    0.2500
   Turn off err/grad.   ShiftErr        ....    0.0010
 Zerner damping         CNVZerner       .... off
 Static damping         CNVDamp         .... on
   Fraction old density DampFac         ....    0.7000
   Max. Damping (<1)    DampMax         ....    0.9800
   Min. Damping (>=0)   DampMin         ....    0.0000
   Turn off err/grad.   DampErr         ....    0.1000

SCF Procedure:
 Maximum # iterations   MaxIter         ....  1500
 SCF integral mode      SCFMode         .... Direct
   Integral package                     .... SHARK and LIBINT hybrid scheme
 Reset frequency        DirectResetFreq ....    20
 Integral Threshold     Thresh          ....  2.500e-11 Eh
 Primitive CutOff       TCut            ....  2.500e-12 Eh

Convergence Tolerance:
 Convergence Check Mode ConvCheckMode   .... Total+1el-Energy
 Convergence forced     ConvForced      .... 1
 Energy Change          TolE            ....  1.000e-08 Eh
 1-El. energy change                    ....  1.000e-05 Eh
 Orbital Gradient       TolG            ....  1.000e-05
 Orbital Rotation angle TolX            ....  1.000e-05
 DIIS Error             TolErr          ....  5.000e-07


The Flip-Spin feature is operative for generating broken symmetry solutions
List of atoms to flip:
 C 99
We will now do a high-spin calculation with                 Ms=  0.0
and then try to converge to the broken symmetry state with Ms=  0.0

------------------------------
INITIAL GUESS: MODEL POTENTIAL
------------------------------
Loading Hartree-Fock densities                     ... done
Calculating cut-offs                               ... done
Initializing the effective Hamiltonian             ... done
Setting up the integral package (SHARK)            ... done
Starting the Coulomb interaction                   ... done (   0.4 sec)
Making the grid                                    ... done (   0.6 sec)
Mapping shells                                     ... done
Starting the XC term evaluation                    ... done (   0.1 sec)
  promolecular density results
     # of electrons  =    627.997493536
     EX              =   -702.768633308
     EC              =    -22.694986942
     EX+EC           =   -725.463620251
Transforming the Hamiltonian                       ... done (   0.1 sec)
Diagonalizing the Hamiltonian                      ... done (   0.1 sec)
Back transforming the eigenvectors                 ... done (   0.1 sec)
Now organizing SCF variables                       ... done
                      ------------------
                      INITIAL GUESS DONE (   1.4 sec)
                      ------------------
             **** ENERGY FILE WAS UPDATED (THDBA-PyBTM.en.tmp) ****
Finished Guess after   4.0 sec
Maximum memory used throughout the entire GUESS-calculation: 106.8 MB


           ************************************************************
           *        Program running with 24 parallel MPI-processes    *
           *              working on a common directory               *
           ************************************************************

-------------------------------------------------------------------------------------------
                                      ORCA LEAN-SCF
                              memory conserving SCF solver
-------------------------------------------------------------------------------------------

                     ******************************************
                               F L I P    S P I N
                           -----------------------------
                            High-Spin SCF calculation
                                S(HS) =   0.0
                      ******************************************
 ----------------------------------------D-I-I-S--------------------------------------------
Iteration    Energy (Eh)           Delta-E    RMSDP     MaxDP     DIISErr   Damp  Time(sec)
-------------------------------------------------------------------------------------------
               ***  Starting incremental Fock matrix formation  ***
    1    -8792.9450703338188760     0.00e+00  1.96e-03  2.89e-02  8.16e-02  0.700  13.8
Warning: op=0 Small HOMO/LUMO gap (   0.037) - skipping pre-diagonalization
         Will do a full diagonalization
    2    -8793.3276763488793222    -3.83e-01  1.60e-03  2.03e-02  4.27e-02  0.700   7.1
                               ***Turning on AO-DIIS***
    3    -8793.5191118552829721    -1.91e-01  8.32e-04  1.33e-02  1.81e-02  0.700   6.5
    4    -8793.6324836173407675    -1.13e-01  1.70e-03  2.84e-02  1.17e-02  0.000   6.2
                              *** Initializing SOSCF ***
---------------------------------------S-O-S-C-F--------------------------------------
Iteration    Energy (Eh)           Delta-E    RMSDP     MaxDP     MaxGrad    Time(sec)
--------------------------------------------------------------------------------------
    5    -8793.8771402218226285    -2.45e-01  2.52e-04  4.43e-03  2.12e-03     7.2
               *** Restarting incremental Fock matrix formation ***
    6    -8793.8780724600801477    -9.32e-04  2.76e-04  5.93e-03  2.16e-03    13.3
    7    -8793.8774027899562498     6.70e-04  2.05e-04  5.97e-03  1.15e-02     9.3
    8    -8793.8787586321268464    -1.36e-03  9.07e-05  1.35e-03  4.07e-04     8.9
    9    -8793.8788007534203643    -4.21e-05  5.47e-05  7.95e-04  4.36e-04     8.0
   10    -8793.8788678885066474    -6.71e-05  3.33e-05  4.29e-04  1.97e-04     7.7
   11    -8793.8788745361744077    -6.65e-06  2.21e-05  2.67e-04  1.23e-04     7.1
   12    -8793.8788786001532571    -4.06e-06  6.78e-06  1.02e-04  6.23e-05     6.8
   13    -8793.8788790431390225    -4.43e-07  3.49e-06  4.51e-05  3.77e-05     5.8
   14    -8793.8788792751001893    -2.32e-07  1.58e-06  2.10e-05  9.75e-06     5.2
   15    -8793.8788793263374828    -5.12e-08  7.25e-07  1.07e-05  6.28e-06     4.6
   16    -8793.8788793089042883     1.74e-08  3.40e-07  6.00e-06  2.45e-06     4.0
                  *** Gradient check signals convergence ***

               *****************************************************
               *                     SUCCESS                       *
               *           SCF CONVERGED AFTER  16 CYCLES          *
               *****************************************************

Recomputing exchange energy using gridx3       ... done (   24.082 sec)
Old exchange energy                            :   -184.702947456 Eh
New exchange energy                            :   -184.703089670 Eh
Exchange energy change after final integration :     -0.000142214 Eh
Total energy after final integration           :  -8793.879021438 Eh
             **** ENERGY FILE WAS UPDATED (THDBA-PyBTM.en.tmp) ****

----------------
TOTAL SCF ENERGY
----------------

Total Energy       :      -8793.87902143843166 Eh         -239293.61363 eV

Components:
Nuclear Repulsion  :      16787.24545452606981 Eh          456804.17229 eV
Electronic Energy  :     -25581.12433375012915 Eh         -696097.78205 eV
One Electron Energy:     -45581.32460646086838 Eh        -1240330.89975 eV
Two Electron Energy:      20000.20027271073923 Eh          544233.11770 eV

Virial components:
Potential Energy   :     -17560.66867835076846 Eh         -477850.08817 eV
Kinetic Energy     :       8766.78965691233861 Eh          238556.47454 eV
Virial Ratio       :          2.00308999823039

DFT components:
N(Alpha)           :      314.000033489479 electrons
N(Beta)            :      314.000033489479 electrons
N(Total)           :      628.000066978958 electrons
E(XC)              :     -550.333735331152 Eh       

---------------
SCF CONVERGENCE
---------------

  Last Energy change         ...   -1.7433e-08  Tolerance :   1.0000e-08
  Last MAX-Density change    ...    5.9958e-06  Tolerance :   1.0000e-07
  Last RMS-Density change    ...    3.4029e-07  Tolerance :   5.0000e-09
  Last DIIS Error            ...    2.1189e-03  Tolerance :   5.0000e-07
  Last Orbital Gradient      ...    2.4544e-06  Tolerance :   1.0000e-05
  Last Orbital Rotation      ...    1.4980e-05  Tolerance :   1.0000e-05


----------------------
UHF SPIN CONTAMINATION
----------------------

Warning: in a DFT calculation there is little theoretical justification to 
         calculate <S**2> as in Hartree-Fock theory. We will do it anyways
         but you should keep in mind that the values have only limited relevance

Expectation value of <S**2>     :    -0.000000
Ideal value S*(S+1) for S=0.0   :     0.000000
Deviation                       :    -0.000000


                    ********************************
                    * MULLIKEN POPULATION ANALYSIS *
                    ********************************

--------------------------------------------
MULLIKEN ATOMIC CHARGES AND SPIN POPULATIONS
--------------------------------------------
   0 Cl:    0.009441   -0.000000
   1 Cl:   -0.003106    0.000000
   2 Cl:    0.014118   -0.000000
   3 Cl:    0.029481    0.000000
   4 Cl:    0.010526    0.000000
   5 Cl:    0.011012   -0.000000
   6 Cl:    0.019776    0.000000
   7 Cl:    0.013734   -0.000000
   8 Cl:    0.013913    0.000000
   9 Cl:    0.022005   -0.000000
  10 Cl:    0.020200    0.000000
  11 Cl:    0.019102    0.000000
  12 Cl:    0.001321   -0.000000
  13 Cl:    0.006049    0.000000
  14 N :   -0.360252   -0.000000
  15 N :   -0.355382   -0.000000
  16 N :   -0.439740   -0.000000
  17 C :    0.021493   -0.000000
  18 C :    0.157866    0.000000
  19 C :    0.155637   -0.000000
  20 C :    0.118138    0.000000
  21 C :    0.061279   -0.000000
  22 C :   -0.122142   -0.000000
  23 H :    0.136949    0.000000
  24 C :    0.069462   -0.000000
  25 C :   -0.134750    0.000000
  26 H :    0.126745    0.000000
  27 C :    0.047759   -0.000000
  28 C :    0.076713    0.000000
  29 C :    0.050879    0.000000
  30 C :    0.124037   -0.000000
  31 C :   -0.111854    0.000000
  32 H :    0.091214    0.000000
  33 C :    0.100195    0.000000
  34 C :   -0.151213   -0.000000
  35 H :    0.085877   -0.000000
  36 C :   -0.098328    0.000000
  37 H :    0.129995    0.000000
  38 C :   -0.082324   -0.000000
  39 H :    0.127269   -0.000000
  40 C :   -0.133642   -0.000000
  41 C :    0.151745   -0.000000
  42 C :   -0.152164   -0.000000
  43 H :    0.088641   -0.000000
  44 C :   -0.004237    0.000000
  45 C :    0.127266   -0.000000
  46 C :   -0.085301    0.000000
  47 H :    0.118691    0.000000
  48 C :    0.150427   -0.000000
  49 C :   -0.102575    0.000000
  50 H :    0.105347   -0.000000
  51 C :    0.074874    0.000000
  52 C :   -0.148012   -0.000000
  53 C :    0.145866   -0.000000
  54 C :   -0.143715    0.000000
  55 C :    0.078664    0.000000
  56 C :   -0.047175   -0.000000
  57 H :    0.142961   -0.000000
  58 C :   -0.075799    0.000000
  59 H :    0.116060    0.000000
  60 C :   -0.052200   -0.000000
  61 H :    0.143026   -0.000000
  62 C :   -0.097648    0.000000
  63 C :   -0.135127    0.000000
  64 C :   -0.126910   -0.000000
  65 C :   -0.235045   -0.000000
  66 H :    0.103926    0.000000
  67 H :    0.125173   -0.000000
  68 C :   -0.237208    0.000000
  69 H :    0.104820   -0.000000
  70 H :    0.122430   -0.000000
  71 C :   -0.045085    0.000000
  72 H :    0.151688    0.000000
  73 C :    0.083472   -0.000000
  74 C :    0.076285    0.000000
  75 C :   -0.123598    0.000000
  76 C :   -0.043680    0.000000
  77 H :    0.146597    0.000000
  78 C :   -0.129173    0.000000
  79 C :   -0.237286   -0.000000
  80 H :    0.104649    0.000000
  81 C :   -0.049511   -0.000000
  82 H :    0.143347    0.000000
  83 C :   -0.085140   -0.000000
  84 C :   -0.111774   -0.000000
  85 C :   -0.097321    0.000000
  86 C :   -0.046475   -0.000000
  87 H :    0.144741    0.000000
  88 C :   -0.118522    0.000000
  89 C :   -0.234914    0.000000
  90 C :   -0.050964   -0.000000
  91 H :    0.143190   -0.000000
  92 C :   -0.048147   -0.000000
  93 H :    0.144871    0.000000
  94 C :   -0.095267    0.000000
  95 H :    0.087502    0.000000
  96 H :    0.102764    0.000000
  97 H :    0.124859    0.000000
  98 H :    0.123051    0.000000
  99 C :   -0.085068   -0.000000
 100 C :   -0.111344    0.000000
Sum of atomic charges         :   -0.0000000
Sum of atomic spin populations:    0.0000000

-----------------------------------------------------
MULLIKEN REDUCED ORBITAL CHARGES AND SPIN POPULATIONS
-----------------------------------------------------
CHARGE
  0 Cls       :     5.926723  s :     5.926723
      pz      :     3.873105  p :    11.035823
      px      :     3.593741
      py      :     3.568978
      dz2     :     0.004052  d :     0.028013
      dxz     :     0.003589
      dyz     :     0.004076
      dx2y2   :     0.002879
      dxy     :     0.013417

  1 Cls       :     5.922172  s :     5.922172
      pz      :     3.853825  p :    11.052359
      px      :     3.477092
      py      :     3.721442
      dz2     :     0.003835  d :     0.028575
      dxz     :     0.006307
      dyz     :     0.002818
      dx2y2   :     0.003886
      dxy     :     0.011729

  2 Cls       :     5.929667  s :     5.929667
      pz      :     3.500996  p :    11.025411
      px      :     3.585844
      py      :     3.938571
      dz2     :     0.006965  d :     0.030803
      dxz     :     0.014501
      dyz     :     0.002341
      dx2y2   :     0.004999
      dxy     :     0.001997

  3 Cls       :     5.927640  s :     5.927640
      pz      :     3.832515  p :    11.011976
      px      :     3.706241
      py      :     3.473221
      dz2     :     0.003819  d :     0.030903
      dxz     :     0.003083
      dyz     :     0.007047
      dx2y2   :     0.005231
      dxy     :     0.011723

  4 Cls       :     5.928322  s :     5.928322
      pz      :     3.586510  p :    11.030230
      px      :     3.826817
      py      :     3.616903
      dz2     :     0.005424  d :     0.030922
      dxz     :     0.005096
      dyz     :     0.011303
      dx2y2   :     0.003977
      dxy     :     0.005122

  5 Cls       :     5.928000  s :     5.928000
      pz      :     3.883137  p :    11.030381
      px      :     3.237551
      py      :     3.909693
      dz2     :     0.004304  d :     0.030607
      dxz     :     0.007580
      dyz     :     0.000628
      dx2y2   :     0.011962
      dxy     :     0.006133

  6 Cls       :     5.925719  s :     5.925719
      pz      :     3.221902  p :    11.023964
      px      :     3.897584
      py      :     3.904478
      dz2     :     0.015665  d :     0.030541
      dxz     :     0.006353
      dyz     :     0.007004
      dx2y2   :     0.000764
      dxy     :     0.000754

  7 Cls       :     5.926224  s :     5.926224
      pz      :     3.299249  p :    11.029617
      px      :     3.930610
      py      :     3.799758
      dz2     :     0.011727  d :     0.030426
      dxz     :     0.005098
      dyz     :     0.010901
      dx2y2   :     0.001260
      dxy     :     0.001439

  8 Cls       :     5.926573  s :     5.926573
      pz      :     3.701080  p :    11.028685
      px      :     3.597242
      py      :     3.730363
      dz2     :     0.003776  d :     0.030829
      dxz     :     0.009379
      dyz     :     0.005416
      dx2y2   :     0.003466
      dxy     :     0.008793

  9 Cls       :     5.927134  s :     5.927134
      pz      :     3.326370  p :    11.020069
      px      :     3.921425
      py      :     3.772274
      dz2     :     0.010391  d :     0.030793
      dxz     :     0.005157
      dyz     :     0.011868
      dx2y2   :     0.001571
      dxy     :     0.001806

 10 Cls       :     5.927094  s :     5.927094
      pz      :     3.424775  p :    11.021926
      px      :     3.685252
      py      :     3.911899
      dz2     :     0.006958  d :     0.030780
      dxz     :     0.013828
      dyz     :     0.004613
      dx2y2   :     0.002939
      dxy     :     0.002442

 11 Cls       :     5.925805  s :     5.925805
      pz      :     3.738334  p :    11.024733
      px      :     3.929399
      py      :     3.356999
      dz2     :     0.003308  d :     0.030360
      dxz     :     0.001305
      dyz     :     0.012458
      dx2y2   :     0.008935
      dxy     :     0.004355

 12 Cls       :     5.926005  s :     5.926005
      pz      :     3.951117  p :    11.042661
      px      :     3.918966
      py      :     3.172577
      dz2     :     0.005159  d :     0.030013
      dxz     :     0.000133
      dyz     :     0.003749
      dx2y2   :     0.013941
      dxy     :     0.007032

 13 Cls       :     5.925759  s :     5.925759
      pz      :     3.929397  p :    11.038254
      px      :     3.292317
      py      :     3.816539
      dz2     :     0.004671  d :     0.029938
      dxz     :     0.004330
      dyz     :     0.000896
      dx2y2   :     0.009823
      dxy     :     0.010217

 14 N s       :     3.649220  s :     3.649220
      pz      :     1.134805  p :     3.672612
      px      :     0.997680
      py      :     1.540127
      dz2     :     0.005002  d :     0.038420
      dxz     :     0.006528
      dyz     :     0.006726
      dx2y2   :     0.006810
      dxy     :     0.013354

 15 N s       :     3.650943  s :     3.650943
      pz      :     1.211401  p :     3.665855
      px      :     0.976799
      py      :     1.477655
      dz2     :     0.004991  d :     0.038584
      dxz     :     0.008557
      dyz     :     0.005551
      dx2y2   :     0.006134
      dxy     :     0.013350

 16 N s       :     3.685396  s :     3.685396
      pz      :     1.150704  p :     3.716509
      px      :     1.376303
      py      :     1.189503
      dz2     :     0.005006  d :     0.037834
      dxz     :     0.006647
      dyz     :     0.006394
      dx2y2   :     0.012507
      dxy     :     0.007281

 17 C s       :     3.130998  s :     3.130998
      pz      :     0.959301  p :     2.777561
      px      :     0.885370
      py      :     0.932890
      dz2     :     0.005842  d :     0.069948
      dxz     :     0.010653
      dyz     :     0.009371
      dx2y2   :     0.019400
      dxy     :     0.024681

 18 C s       :     3.085428  s :     3.085428
      pz      :     0.913165  p :     2.696737
      px      :     0.855786
      py      :     0.927786
      dz2     :     0.004996  d :     0.059969
      dxz     :     0.009527
      dyz     :     0.007638
      dx2y2   :     0.018909
      dxy     :     0.018899

 19 C s       :     3.092664  s :     3.092664
      pz      :     0.907968  p :     2.691341
      px      :     0.880166
      py      :     0.903208
      dz2     :     0.004462  d :     0.060358
      dxz     :     0.008403
      dyz     :     0.008346
      dx2y2   :     0.019650
      dxy     :     0.019497

 20 C s       :     3.132211  s :     3.132211
      pz      :     0.995453  p :     2.709069
      px      :     0.901069
      py      :     0.812547
      dz2     :     0.004665  d :     0.040582
      dxz     :     0.006679
      dyz     :     0.005675
      dx2y2   :     0.012039
      dxy     :     0.011523

 21 C s       :     3.140436  s :     3.140436
      pz      :     0.980264  p :     2.758693
      px      :     0.893504
      py      :     0.884925
      dz2     :     0.004467  d :     0.039592
      dxz     :     0.006545
      dyz     :     0.005437
      dx2y2   :     0.011203
      dxy     :     0.011940

 22 C s       :     3.198883  s :     3.198883
      pz      :     0.933981  p :     2.888687
      px      :     1.007942
      py      :     0.946764
      dz2     :     0.002842  d :     0.034571
      dxz     :     0.003617
      dyz     :     0.005369
      dx2y2   :     0.011016
      dxy     :     0.011727

 23 H s       :     0.850521  s :     0.850521
      pz      :     0.002399  p :     0.012530
      px      :     0.006662
      py      :     0.003469

 24 C s       :     3.142686  s :     3.142686
      pz      :     0.994979  p :     2.748022
      px      :     0.864297
      py      :     0.888747
      dz2     :     0.003320  d :     0.039831
      dxz     :     0.005518
      dyz     :     0.005941
      dx2y2   :     0.011750
      dxy     :     0.013301

 25 C s       :     3.179206  s :     3.179206
      pz      :     0.964152  p :     2.920788
      px      :     0.965751
      py      :     0.990884
      dz2     :     0.002766  d :     0.034756
      dxz     :     0.007083
      dyz     :     0.004075
      dx2y2   :     0.011063
      dxy     :     0.009770

 26 H s       :     0.860883  s :     0.860883
      pz      :     0.003380  p :     0.012373
      px      :     0.001867
      py      :     0.007126

 27 C s       :     3.143040  s :     3.143040
      pz      :     0.981957  p :     2.769911
      px      :     0.902400
      py      :     0.885553
      dz2     :     0.004297  d :     0.039291
      dxz     :     0.007012
      dyz     :     0.005514
      dx2y2   :     0.011538
      dxy     :     0.010929

 28 C s       :     3.137205  s :     3.137205
      pz      :     0.939086  p :     2.744891
      px      :     0.862298
      py      :     0.943508
      dz2     :     0.004496  d :     0.041191
      dxz     :     0.007161
      dyz     :     0.005587
      dx2y2   :     0.012504
      dxy     :     0.011443

 29 C s       :     3.145570  s :     3.145570
      pz      :     1.001155  p :     2.764068
      px      :     0.847331
      py      :     0.915583
      dz2     :     0.003241  d :     0.039482
      dxz     :     0.006171
      dyz     :     0.005223
      dx2y2   :     0.013553
      dxy     :     0.011294

 30 C s       :     3.124119  s :     3.124119
      pz      :     0.822591  p :     2.711287
      px      :     0.902391
      py      :     0.986305
      dz2     :     0.008684  d :     0.040556
      dxz     :     0.013090
      dyz     :     0.007004
      dx2y2   :     0.005642
      dxy     :     0.006136

 31 C s       :     3.165047  s :     3.165047
      pz      :     0.981347  p :     2.911664
      px      :     0.965654
      py      :     0.964664
      dz2     :     0.002924  d :     0.035143
      dxz     :     0.006702
      dyz     :     0.002488
      dx2y2   :     0.013026
      dxy     :     0.010002

 32 H s       :     0.896636  s :     0.896636
      pz      :     0.002783  p :     0.012150
      px      :     0.001802
      py      :     0.007565

 33 C s       :     3.130245  s :     3.130245
      pz      :     0.921498  p :     2.729114
      px      :     0.909182
      py      :     0.898434
      dz2     :     0.008844  d :     0.040446
      dxz     :     0.005964
      dyz     :     0.008779
      dx2y2   :     0.008825
      dxy     :     0.008035

 34 C s       :     3.180260  s :     3.180260
      pz      :     1.013828  p :     2.935947
      px      :     0.967898
      py      :     0.954221
      dz2     :     0.002903  d :     0.035006
      dxz     :     0.003519
      dyz     :     0.005345
      dx2y2   :     0.011132
      dxy     :     0.012108

 35 H s       :     0.902015  s :     0.902015
      pz      :     0.002719  p :     0.012107
      px      :     0.006210
      py      :     0.003178

 36 C s       :     3.159128  s :     3.159128
      pz      :     0.997698  p :     2.905783
      px      :     0.971738
      py      :     0.936347
      dz2     :     0.003098  d :     0.033417
      dxz     :     0.004247
      dyz     :     0.004533
      dx2y2   :     0.010612
      dxy     :     0.010926

 37 H s       :     0.857679  s :     0.857679
      pz      :     0.002776  p :     0.012326
      px      :     0.005393
      py      :     0.004158

 38 C s       :     3.185728  s :     3.185728
      pz      :     0.920856  p :     2.860890
      px      :     0.940306
      py      :     0.999728
      dz2     :     0.003965  d :     0.035707
      dxz     :     0.006314
      dyz     :     0.003090
      dx2y2   :     0.012009
      dxy     :     0.010328

 39 H s       :     0.860123  s :     0.860123
      pz      :     0.002443  p :     0.012608
      px      :     0.001962
      py      :     0.008203

 40 C s       :     3.188766  s :     3.188766
      pz      :     0.916396  p :     2.895639
      px      :     0.945466
      py      :     1.033777
      dz2     :     0.009263  d :     0.049237
      dxz     :     0.009169
      dyz     :     0.010594
      dx2y2   :     0.010132
      dxy     :     0.010080

 41 C s       :     3.119549  s :     3.119549
      pz      :     0.941504  p :     2.687407
      px      :     0.845672
      py      :     0.900231
      dz2     :     0.008171  d :     0.041299
      dxz     :     0.007484
      dyz     :     0.006749
      dx2y2   :     0.009998
      dxy     :     0.008897

 42 C s       :     3.181513  s :     3.181513
      pz      :     1.006300  p :     2.935628
      px      :     0.941513
      py      :     0.987815
      dz2     :     0.002865  d :     0.035023
      dxz     :     0.006748
      dyz     :     0.003994
      dx2y2   :     0.011718
      dxy     :     0.009697

 43 H s       :     0.899284  s :     0.899284
      pz      :     0.003383  p :     0.012075
      px      :     0.001748
      py      :     0.006944

 44 C s       :     3.138848  s :     3.138848
      pz      :     0.988065  p :     2.795637
      px      :     0.853061
      py      :     0.954511
      dz2     :     0.006949  d :     0.069752
      dxz     :     0.013328
      dyz     :     0.007316
      dx2y2   :     0.019634
      dxy     :     0.022525

 45 C s       :     3.128213  s :     3.128213
      pz      :     0.955628  p :     2.702715
      px      :     0.901508
      py      :     0.845579
      dz2     :     0.005552  d :     0.041806
      dxz     :     0.007913
      dyz     :     0.006106
      dx2y2   :     0.012316
      dxy     :     0.009918

 46 C s       :     3.174958  s :     3.174958
      pz      :     0.954663  p :     2.875380
      px      :     0.960681
      py      :     0.960036
      dz2     :     0.003685  d :     0.034963
      dxz     :     0.004771
      dyz     :     0.005280
      dx2y2   :     0.010767
      dxy     :     0.010461

 47 H s       :     0.868951  s :     0.868951
      pz      :     0.002546  p :     0.012358
      px      :     0.006867
      py      :     0.002945

 48 C s       :     3.081076  s :     3.081076
      pz      :     0.936981  p :     2.709059
      px      :     0.847189
      py      :     0.924889
      dz2     :     0.005497  d :     0.059438
      dxz     :     0.009387
      dyz     :     0.008113
      dx2y2   :     0.020283
      dxy     :     0.016158

 49 C s       :     3.150413  s :     3.150413
      pz      :     0.994235  p :     2.918429
      px      :     0.970268
      py      :     0.953926
      dz2     :     0.003467  d :     0.033732
      dxz     :     0.004464
      dyz     :     0.004505
      dx2y2   :     0.010504
      dxy     :     0.010792

 50 H s       :     0.882359  s :     0.882359
      pz      :     0.002707  p :     0.012294
      px      :     0.006003
      py      :     0.003584

 51 C s       :     3.135702  s :     3.135702
      pz      :     0.946172  p :     2.748359
      px      :     0.894243
      py      :     0.907944
      dz2     :     0.003301  d :     0.041065
      dxz     :     0.005928
      dyz     :     0.006142
      dx2y2   :     0.012644
      dxy     :     0.013050

 52 C s       :     3.188374  s :     3.188374
      pz      :     0.974885  p :     2.923814
      px      :     0.978681
      py      :     0.970248
      dz2     :     0.003963  d :     0.035825
      dxz     :     0.003948
      dyz     :     0.005898
      dx2y2   :     0.009779
      dxy     :     0.012237

 53 C s       :     3.082767  s :     3.082767
      pz      :     0.935712  p :     2.711901
      px      :     0.961801
      py      :     0.814388
      dz2     :     0.004888  d :     0.059465
      dxz     :     0.006613
      dyz     :     0.010523
      dx2y2   :     0.016787
      dxy     :     0.020653

 54 C s       :     3.191736  s :     3.191736
      pz      :     0.939739  p :     2.902994
      px      :     1.009966
      py      :     0.953288
      dz2     :     0.008414  d :     0.048986
      dxz     :     0.011637
      dyz     :     0.007424
      dx2y2   :     0.010497
      dxy     :     0.011014

 55 C s       :     3.127586  s :     3.127586
      pz      :     0.966199  p :     2.754002
      px      :     0.924388
      py      :     0.863415
      dz2     :     0.003894  d :     0.039748
      dxz     :     0.005539
      dyz     :     0.006458
      dx2y2   :     0.011036
      dxy     :     0.012821

 56 C s       :     3.143685  s :     3.143685
      pz      :     0.939119  p :     2.869557
      px      :     0.999885
      py      :     0.930553
      dz2     :     0.006685  d :     0.033932
      dxz     :     0.006656
      dyz     :     0.005134
      dx2y2   :     0.008419
      dxy     :     0.007039

 57 H s       :     0.844473  s :     0.844473
      pz      :     0.002285  p :     0.012566
      px      :     0.007996
      py      :     0.002286

 58 C s       :     3.169435  s :     3.169435
      pz      :     0.949037  p :     2.870482
      px      :     0.940730
      py      :     0.980715
      dz2     :     0.002888  d :     0.035882
      dxz     :     0.007366
      dyz     :     0.004025
      dx2y2   :     0.011417
      dxy     :     0.010186

 59 H s       :     0.871596  s :     0.871596
      pz      :     0.003211  p :     0.012344
      px      :     0.001917
      py      :     0.007217

 60 C s       :     3.145333  s :     3.145333
      pz      :     1.002672  p :     2.872875
      px      :     0.880444
      py      :     0.989759
      dz2     :     0.004335  d :     0.033992
      dxz     :     0.008247
      dyz     :     0.004854
      dx2y2   :     0.007838
      dxy     :     0.008719

 61 H s       :     0.844558  s :     0.844558
      pz      :     0.004929  p :     0.012416
      px      :     0.002294
      py      :     0.005192

 62 C s       :     3.180739  s :     3.180739
      pz      :     0.968691  p :     2.866420
      px      :     0.925308
      py      :     0.972421
      dz2     :     0.008523  d :     0.050489
      dxz     :     0.011938
      dyz     :     0.006676
      dx2y2   :     0.011138
      dxy     :     0.012214

 63 C s       :     3.189150  s :     3.189150
      pz      :     1.028513  p :     2.897098
      px      :     0.838711
      py      :     1.029875
      dz2     :     0.008573  d :     0.048879
      dxz     :     0.010920
      dyz     :     0.005869
      dx2y2   :     0.012345
      dxy     :     0.011172

 64 C s       :     3.195257  s :     3.195257
      pz      :     1.005451  p :     2.882151
      px      :     0.969754
      py      :     0.906946
      dz2     :     0.009689  d :     0.049503
      dxz     :     0.007057
      dyz     :     0.011496
      dx2y2   :     0.009874
      dxy     :     0.011387

 65 C s       :     3.209205  s :     3.209205
      pz      :     0.997931  p :     2.986911
      px      :     1.010943
      py      :     0.978037
      dz2     :     0.008372  d :     0.038929
      dxz     :     0.006825
      dyz     :     0.007991
      dx2y2   :     0.009396
      dxy     :     0.006345

 66 H s       :     0.884835  s :     0.884835
      pz      :     0.002339  p :     0.011239
      px      :     0.006061
      py      :     0.002839

 67 H s       :     0.863519  s :     0.863519
      pz      :     0.005402  p :     0.011309
      px      :     0.002789
      py      :     0.003118

 68 C s       :     3.209893  s :     3.209893
      pz      :     0.991480  p :     2.988580
      px      :     0.968458
      py      :     1.028642
      dz2     :     0.008910  d :     0.038735
      dxz     :     0.009595
      dyz     :     0.004346
      dx2y2   :     0.009394
      dxy     :     0.006490

 69 H s       :     0.883954  s :     0.883954
      pz      :     0.002207  p :     0.011225
      px      :     0.002075
      py      :     0.006943

 70 H s       :     0.866259  s :     0.866259
      pz      :     0.005635  p :     0.011311
      px      :     0.002948
      py      :     0.002728

 71 C s       :     3.149276  s :     3.149276
      pz      :     1.005778  p :     2.862084
      px      :     0.979921
      py      :     0.876385
      dz2     :     0.004964  d :     0.033726
      dxz     :     0.005548
      dyz     :     0.008125
      dx2y2   :     0.007205
      dxy     :     0.007884

 72 H s       :     0.835868  s :     0.835868
      pz      :     0.005736  p :     0.012444
      px      :     0.004985
      py      :     0.001724

 73 C s       :     3.140239  s :     3.140239
      pz      :     0.828394  p :     2.734980
      px      :     1.001542
      py      :     0.905044
      dz2     :     0.008291  d :     0.041309
      dxz     :     0.006017
      dyz     :     0.015531
      dx2y2   :     0.005551
      dxy     :     0.005920

 74 C s       :     3.127809  s :     3.127809
      pz      :     0.951417  p :     2.756074
      px      :     0.899319
      py      :     0.905337
      dz2     :     0.004531  d :     0.039832
      dxz     :     0.005324
      dyz     :     0.006568
      dx2y2   :     0.011354
      dxy     :     0.012055

 75 C s       :     3.185966  s :     3.185966
      pz      :     0.846463  p :     2.888273
      px      :     1.015981
      py      :     1.025829
      dz2     :     0.013713  d :     0.049359
      dxz     :     0.013889
      dyz     :     0.008286
      dx2y2   :     0.006727
      dxy     :     0.006744

 76 C s       :     3.143173  s :     3.143173
      pz      :     0.930272  p :     2.866848
      px      :     0.971016
      py      :     0.965560
      dz2     :     0.006937  d :     0.033660
      dxz     :     0.005651
      dyz     :     0.007059
      dx2y2   :     0.006587
      dxy     :     0.007427

 77 H s       :     0.840847  s :     0.840847
      pz      :     0.002466  p :     0.012556
      px      :     0.004171
      py      :     0.005918

 78 C s       :     3.187173  s :     3.187173
      pz      :     0.866422  p :     2.892626
      px      :     1.039426
      py      :     0.986777
      dz2     :     0.013202  d :     0.049375
      dxz     :     0.007459
      dyz     :     0.015377
      dx2y2   :     0.005907
      dxy     :     0.007430

 79 C s       :     3.208733  s :     3.208733
      pz      :     1.043975  p :     2.989788
      px      :     0.996294
      py      :     0.949519
      dz2     :     0.009769  d :     0.038765
      dxz     :     0.006355
      dyz     :     0.005412
      dx2y2   :     0.007140
      dxy     :     0.010088

 80 H s       :     0.884112  s :     0.884112
      pz      :     0.003353  p :     0.011240
      px      :     0.004752
      py      :     0.003134

 81 C s       :     3.143608  s :     3.143608
      pz      :     0.962717  p :     2.872356
      px      :     0.999176
      py      :     0.910463
      dz2     :     0.008724  d :     0.033547
      dxz     :     0.003911
      dyz     :     0.010448
      dx2y2   :     0.004966
      dxy     :     0.005497

 82 H s       :     0.844223  s :     0.844223
      pz      :     0.006467  p :     0.012430
      px      :     0.002677
      py      :     0.003286

 83 C s       :     3.180678  s :     3.180678
      pz      :     0.967861  p :     2.853900
      px      :     1.015477
      py      :     0.870562
      dz2     :     0.009275  d :     0.050561
      dxz     :     0.006670
      dyz     :     0.012377
      dx2y2   :     0.011729
      dxy     :     0.010509

 84 C s       :     3.184365  s :     3.184365
      pz      :     0.898355  p :     2.877913
      px      :     0.964812
      py      :     1.014746
      dz2     :     0.012354  d :     0.049496
      dxz     :     0.014852
      dyz     :     0.008440
      dx2y2   :     0.006958
      dxy     :     0.006892

 85 C s       :     3.183125  s :     3.183125
      pz      :     1.017220  p :     2.863970
      px      :     1.027994
      py      :     0.818756
      dz2     :     0.012029  d :     0.050226
      dxz     :     0.007695
      dyz     :     0.014564
      dx2y2   :     0.008344
      dxy     :     0.007593

 86 C s       :     3.141201  s :     3.141201
      pz      :     0.984446  p :     2.871669
      px      :     0.899981
      py      :     0.987241
      dz2     :     0.008516  d :     0.033606
      dxz     :     0.009568
      dyz     :     0.004346
      dx2y2   :     0.005422
      dxy     :     0.005754

 87 H s       :     0.842816  s :     0.842816
      pz      :     0.007387  p :     0.012443
      px      :     0.002228
      py      :     0.002829

 88 C s       :     3.189465  s :     3.189465
      pz      :     0.873928  p :     2.879522
      px      :     1.029287
      py      :     0.976307
      dz2     :     0.012925  d :     0.049535
      dxz     :     0.007451
      dyz     :     0.015677
      dx2y2   :     0.006044
      dxy     :     0.007439

 89 C s       :     3.209169  s :     3.209169
      pz      :     1.035644  p :     2.986850
      px      :     0.994932
      py      :     0.956273
      dz2     :     0.012210  d :     0.038895
      dxz     :     0.004269
      dyz     :     0.004998
      dx2y2   :     0.006923
      dxy     :     0.010495

 90 C s       :     3.143427  s :     3.143427
      pz      :     0.967536  p :     2.873964
      px      :     0.998749
      py      :     0.907678
      dz2     :     0.008678  d :     0.033574
      dxz     :     0.003741
      dyz     :     0.010529
      dx2y2   :     0.005113
      dxy     :     0.005513

 91 H s       :     0.844395  s :     0.844395
      pz      :     0.006734  p :     0.012416
      px      :     0.002541
      py      :     0.003141

 92 C s       :     3.142184  s :     3.142184
      pz      :     0.944802  p :     2.872390
      px      :     0.942192
      py      :     0.985395
      dz2     :     0.008699  d :     0.033573
      dxz     :     0.009734
      dyz     :     0.005030
      dx2y2   :     0.005308
      dxy     :     0.004803

 93 H s       :     0.842684  s :     0.842684
      pz      :     0.005582  p :     0.012446
      px      :     0.004304
      py      :     0.002559

 94 C s       :     3.183881  s :     3.183881
      pz      :     1.014826  p :     2.861021
      px      :     0.852816
      py      :     0.993378
      dz2     :     0.011920  d :     0.050365
      dxz     :     0.013865
      dyz     :     0.008476
      dx2y2   :     0.007959
      dxy     :     0.008144

 95 H s       :     0.900537  s :     0.900537
      pz      :     0.002513  p :     0.011960
      px      :     0.005755
      py      :     0.003692

 96 H s       :     0.886011  s :     0.886011
      pz      :     0.002307  p :     0.011225
      px      :     0.005547
      py      :     0.003371

 97 H s       :     0.863828  s :     0.863828
      pz      :     0.006936  p :     0.011313
      px      :     0.002212
      py      :     0.002165

 98 H s       :     0.865629  s :     0.865629
      pz      :     0.006630  p :     0.011320
      px      :     0.002524
      py      :     0.002166

 99 C s       :     3.149788  s :     3.149788
      pz      :     0.987992  p :     2.895391
      px      :     0.953420
      py      :     0.953979
      dz2     :     0.005065  d :     0.039890
      dxz     :     0.006944
      dyz     :     0.005469
      dx2y2   :     0.011547
      dxy     :     0.010865

100 C s       :     3.134037  s :     3.134037
      pz      :     1.042835  p :     2.938219
      px      :     0.983535
      py      :     0.911850
      dz2     :     0.005091  d :     0.039088
      dxz     :     0.006331
      dyz     :     0.005064
      dx2y2   :     0.011161
      dxy     :     0.011442


SPIN
  0 Cls       :    -0.000000  s :    -0.000000
      pz      :    -0.000000  p :    -0.000000
      px      :    -0.000000
      py      :    -0.000000
      dz2     :    -0.000000  d :    -0.000000
      dxz     :    -0.000000
      dyz     :    -0.000000
      dx2y2   :    -0.000000
      dxy     :     0.000000

  1 Cls       :     0.000000  s :     0.000000
      pz      :     0.000000  p :     0.000000
      px      :     0.000000
      py      :     0.000000
      dz2     :     0.000000  d :     0.000000
      dxz     :     0.000000
      dyz     :     0.000000
      dx2y2   :    -0.000000
      dxy     :     0.000000

  2 Cls       :    -0.000000  s :    -0.000000
      pz      :     0.000000  p :     0.000000
      px      :     0.000000
      py      :     0.000000
      dz2     :    -0.000000  d :    -0.000000
      dxz     :    -0.000000
      dyz     :    -0.000000
      dx2y2   :    -0.000000
      dxy     :    -0.000000

  3 Cls       :    -0.000000  s :    -0.000000
      pz      :     0.000000  p :     0.000000
      px      :    -0.000000
      py      :     0.000000
      dz2     :     0.000000  d :    -0.000000
      dxz     :    -0.000000
      dyz     :     0.000000
      dx2y2   :    -0.000000
      dxy     :    -0.000000

  4 Cls       :    -0.000000  s :    -0.000000
      pz      :     0.000000  p :     0.000000
      px      :    -0.000000
      py      :     0.000000
      dz2     :     0.000000  d :     0.000000
      dxz     :    -0.000000
      dyz     :    -0.000000
      dx2y2   :     0.000000
      dxy     :     0.000000

  5 Cls       :    -0.000000  s :    -0.000000
      pz      :     0.000000  p :     0.000000
      px      :     0.000000
      py      :     0.000000
      dz2     :     0.000000  d :     0.000000
      dxz     :     0.000000
      dyz     :    -0.000000
      dx2y2   :     0.000000
      dxy     :     0.000000

  6 Cls       :     0.000000  s :     0.000000
      pz      :    -0.000000  p :    -0.000000
      px      :    -0.000000
      py      :     0.000000
      dz2     :     0.000000  d :    -0.000000
      dxz     :     0.000000
      dyz     :    -0.000000
      dx2y2   :    -0.000000
      dxy     :    -0.000000

  7 Cls       :    -0.000000  s :    -0.000000
      pz      :     0.000000  p :    -0.000000
      px      :    -0.000000
      py      :    -0.000000
      dz2     :    -0.000000  d :     0.000000
      dxz     :     0.000000
      dyz     :    -0.000000
      dx2y2   :    -0.000000
      dxy     :     0.000000

  8 Cls       :     0.000000  s :     0.000000
      pz      :     0.000000  p :     0.000000
      px      :    -0.000000
      py      :     0.000000
      dz2     :     0.000000  d :     0.000000
      dxz     :     0.000000
      dyz     :     0.000000
      dx2y2   :    -0.000000
      dxy     :     0.000000

  9 Cls       :    -0.000000  s :    -0.000000
      pz      :     0.000000  p :    -0.000000
      px      :    -0.000000
      py      :    -0.000000
      dz2     :    -0.000000  d :     0.000000
      dxz     :     0.000000
      dyz     :     0.000000
      dx2y2   :     0.000000
      dxy     :     0.000000

 10 Cls       :     0.000000  s :     0.000000
      pz      :     0.000000  p :     0.000000
      px      :     0.000000
      py      :     0.000000
      dz2     :     0.000000  d :    -0.000000
      dxz     :    -0.000000
      dyz     :    -0.000000
      dx2y2   :    -0.000000
      dxy     :    -0.000000

 11 Cls       :     0.000000  s :     0.000000
      pz      :    -0.000000  p :     0.000000
      px      :     0.000000
      py      :     0.000000
      dz2     :    -0.000000  d :    -0.000000
      dxz     :    -0.000000
      dyz     :    -0.000000
      dx2y2   :     0.000000
      dxy     :    -0.000000

 12 Cls       :    -0.000000  s :    -0.000000
      pz      :     0.000000  p :     0.000000
      px      :     0.000000
      py      :    -0.000000
      dz2     :     0.000000  d :     0.000000
      dxz     :    -0.000000
      dyz     :     0.000000
      dx2y2   :    -0.000000
      dxy     :     0.000000

 13 Cls       :     0.000000  s :     0.000000
      pz      :     0.000000  p :     0.000000
      px      :     0.000000
      py      :    -0.000000
      dz2     :    -0.000000  d :    -0.000000
      dxz     :     0.000000
      dyz     :     0.000000
      dx2y2   :    -0.000000
      dxy     :    -0.000000

 14 N s       :    -0.000000  s :    -0.000000
      pz      :     0.000000  p :     0.000000
      px      :    -0.000000
      py      :     0.000000
      dz2     :    -0.000000  d :    -0.000000
      dxz     :    -0.000000
      dyz     :    -0.000000
      dx2y2   :    -0.000000
      dxy     :    -0.000000

 15 N s       :    -0.000000  s :    -0.000000
      pz      :    -0.000000  p :    -0.000000
      px      :    -0.000000
      py      :     0.000000
      dz2     :     0.000000  d :     0.000000
      dxz     :     0.000000
      dyz     :     0.000000
      dx2y2   :    -0.000000
      dxy     :     0.000000

 16 N s       :    -0.000000  s :    -0.000000
      pz      :    -0.000000  p :    -0.000000
      px      :    -0.000000
      py      :    -0.000000
      dz2     :     0.000000  d :     0.000000
      dxz     :     0.000000
      dyz     :     0.000000
      dx2y2   :     0.000000
      dxy     :     0.000000

 17 C s       :    -0.000000  s :    -0.000000
      pz      :    -0.000000  p :    -0.000000
      px      :    -0.000000
      py      :    -0.000000
      dz2     :     0.000000  d :     0.000000
      dxz     :     0.000000
      dyz     :     0.000000
      dx2y2   :     0.000000
      dxy     :    -0.000000

 18 C s       :     0.000000  s :     0.000000
      pz      :     0.000000  p :     0.000000
      px      :     0.000000
      py      :     0.000000
      dz2     :     0.000000  d :     0.000000
      dxz     :    -0.000000
      dyz     :    -0.000000
      dx2y2   :     0.000000
      dxy     :     0.000000

 19 C s       :    -0.000000  s :    -0.000000
      pz      :    -0.000000  p :    -0.000000
      px      :    -0.000000
      py      :    -0.000000
      dz2     :     0.000000  d :     0.000000
      dxz     :     0.000000
      dyz     :     0.000000
      dx2y2   :    -0.000000
      dxy     :     0.000000

 20 C s       :    -0.000000  s :    -0.000000
      pz      :     0.000000  p :     0.000000
      px      :     0.000000
      py      :     0.000000
      dz2     :    -0.000000  d :    -0.000000
      dxz     :    -0.000000
      dyz     :    -0.000000
      dx2y2   :     0.000000
      dxy     :    -0.000000

 21 C s       :    -0.000000  s :    -0.000000
      pz      :     0.000000  p :    -0.000000
      px      :    -0.000000
      py      :     0.000000
      dz2     :    -0.000000  d :    -0.000000
      dxz     :    -0.000000
      dyz     :    -0.000000
      dx2y2   :     0.000000
      dxy     :     0.000000

 22 C s       :    -0.000000  s :    -0.000000
      pz      :     0.000000  p :    -0.000000
      px      :    -0.000000
      py      :    -0.000000
      dz2     :    -0.000000  d :    -0.000000
      dxz     :     0.000000
      dyz     :     0.000000
      dx2y2   :    -0.000000
      dxy     :     0.000000

 23 H s       :     0.000000  s :     0.000000
      pz      :     0.000000  p :     0.000000
      px      :     0.000000
      py      :     0.000000

 24 C s       :     0.000000  s :     0.000000
      pz      :    -0.000000  p :    -0.000000
      px      :    -0.000000
      py      :     0.000000
      dz2     :     0.000000  d :     0.000000
      dxz     :     0.000000
      dyz     :     0.000000
      dx2y2   :    -0.000000
      dxy     :    -0.000000

 25 C s       :     0.000000  s :     0.000000
      pz      :    -0.000000  p :     0.000000
      px      :     0.000000
      py      :     0.000000
      dz2     :     0.000000  d :     0.000000
      dxz     :     0.000000
      dyz     :    -0.000000
      dx2y2   :     0.000000
      dxy     :    -0.000000

 26 H s       :     0.000000  s :     0.000000
      pz      :     0.000000  p :     0.000000
      px      :     0.000000
      py      :     0.000000

 27 C s       :    -0.000000  s :    -0.000000
      pz      :    -0.000000  p :    -0.000000
      px      :    -0.000000
      py      :    -0.000000
      dz2     :    -0.000000  d :    -0.000000
      dxz     :     0.000000
      dyz     :    -0.000000
      dx2y2   :    -0.000000
      dxy     :     0.000000

 28 C s       :     0.000000  s :     0.000000
      pz      :    -0.000000  p :    -0.000000
      px      :    -0.000000
      py      :     0.000000
      dz2     :     0.000000  d :     0.000000
      dxz     :     0.000000
      dyz     :     0.000000
      dx2y2   :    -0.000000
      dxy     :    -0.000000

 29 C s       :     0.000000  s :     0.000000
      pz      :    -0.000000  p :    -0.000000
      px      :    -0.000000
      py      :     0.000000
      dz2     :    -0.000000  d :    -0.000000
      dxz     :     0.000000
      dyz     :    -0.000000
      dx2y2   :     0.000000
      dxy     :    -0.000000

 30 C s       :    -0.000000  s :    -0.000000
      pz      :     0.000000  p :     0.000000
      px      :     0.000000
      py      :     0.000000
      dz2     :     0.000000  d :    -0.000000
      dxz     :    -0.000000
      dyz     :    -0.000000
      dx2y2   :    -0.000000
      dxy     :    -0.000000

 31 C s       :     0.000000  s :     0.000000
      pz      :     0.000000  p :     0.000000
      px      :     0.000000
      py      :     0.000000
      dz2     :     0.000000  d :    -0.000000
      dxz     :    -0.000000
      dyz     :    -0.000000
      dx2y2   :     0.000000
      dxy     :    -0.000000

 32 H s       :     0.000000  s :     0.000000
      pz      :     0.000000  p :     0.000000
      px      :    -0.000000
      py      :    -0.000000

 33 C s       :     0.000000  s :     0.000000
      pz      :     0.000000  p :     0.000000
      px      :     0.000000
      py      :     0.000000
      dz2     :    -0.000000  d :    -0.000000
      dxz     :     0.000000
      dyz     :    -0.000000
      dx2y2   :    -0.000000
      dxy     :    -0.000000

 34 C s       :    -0.000000  s :    -0.000000
      pz      :    -0.000000  p :    -0.000000
      px      :    -0.000000
      py      :    -0.000000
      dz2     :    -0.000000  d :    -0.000000
      dxz     :     0.000000
      dyz     :     0.000000
      dx2y2   :    -0.000000
      dxy     :     0.000000

 35 H s       :    -0.000000  s :    -0.000000
      pz      :     0.000000  p :     0.000000
      px      :     0.000000
      py      :     0.000000

 36 C s       :     0.000000  s :     0.000000
      pz      :     0.000000  p :     0.000000
      px      :     0.000000
      py      :    -0.000000
      dz2     :     0.000000  d :    -0.000000
      dxz     :    -0.000000
      dyz     :    -0.000000
      dx2y2   :    -0.000000
      dxy     :     0.000000

 37 H s       :     0.000000  s :     0.000000
      pz      :     0.000000  p :    -0.000000
      px      :    -0.000000
      py      :    -0.000000

 38 C s       :    -0.000000  s :    -0.000000
      pz      :    -0.000000  p :    -0.000000
      px      :    -0.000000
      py      :     0.000000
      dz2     :    -0.000000  d :    -0.000000
      dxz     :     0.000000
      dyz     :    -0.000000
      dx2y2   :    -0.000000
      dxy     :    -0.000000

 39 H s       :    -0.000000  s :    -0.000000
      pz      :    -0.000000  p :    -0.000000
      px      :    -0.000000
      py      :    -0.000000

 40 C s       :    -0.000000  s :    -0.000000
      pz      :    -0.000000  p :    -0.000000
      px      :    -0.000000
      py      :    -0.000000
      dz2     :     0.000000  d :     0.000000
      dxz     :     0.000000
      dyz     :     0.000000
      dx2y2   :    -0.000000
      dxy     :     0.000000

 41 C s       :    -0.000000  s :    -0.000000
      pz      :    -0.000000  p :    -0.000000
      px      :    -0.000000
      py      :    -0.000000
      dz2     :     0.000000  d :     0.000000
      dxz     :     0.000000
      dyz     :     0.000000
      dx2y2   :     0.000000
      dxy     :     0.000000

 42 C s       :    -0.000000  s :    -0.000000
      pz      :    -0.000000  p :    -0.000000
      px      :     0.000000
      py      :    -0.000000
      dz2     :     0.000000  d :    -0.000000
      dxz     :    -0.000000
      dyz     :     0.000000
      dx2y2   :     0.000000
      dxy     :    -0.000000

 43 H s       :    -0.000000  s :    -0.000000
      pz      :    -0.000000  p :    -0.000000
      px      :    -0.000000
      py      :    -0.000000

 44 C s       :     0.000000  s :     0.000000
      pz      :     0.000000  p :     0.000000
      px      :     0.000000
      py      :     0.000000
      dz2     :    -0.000000  d :     0.000000
      dxz     :     0.000000
      dyz     :     0.000000
      dx2y2   :     0.000000
      dxy     :     0.000000

 45 C s       :    -0.000000  s :    -0.000000
      pz      :    -0.000000  p :    -0.000000
      px      :    -0.000000
      py      :    -0.000000
      dz2     :     0.000000  d :     0.000000
      dxz     :     0.000000
      dyz     :     0.000000
      dx2y2   :     0.000000
      dxy     :    -0.000000

 46 C s       :     0.000000  s :     0.000000
      pz      :    -0.000000  p :     0.000000
      px      :     0.000000
      py      :     0.000000
      dz2     :    -0.000000  d :    -0.000000
      dxz     :    -0.000000
      dyz     :    -0.000000
      dx2y2   :     0.000000
      dxy     :    -0.000000

 47 H s       :     0.000000  s :     0.000000
      pz      :     0.000000  p :     0.000000
      px      :     0.000000
      py      :    -0.000000

 48 C s       :    -0.000000  s :    -0.000000
      pz      :    -0.000000  p :    -0.000000
      px      :    -0.000000
      py      :    -0.000000
      dz2     :    -0.000000  d :    -0.000000
      dxz     :    -0.000000
      dyz     :    -0.000000
      dx2y2   :     0.000000
      dxy     :    -0.000000

 49 C s       :     0.000000  s :     0.000000
      pz      :    -0.000000  p :    -0.000000
      px      :     0.000000
      py      :    -0.000000
      dz2     :     0.000000  d :     0.000000
      dxz     :     0.000000
      dyz     :     0.000000
      dx2y2   :     0.000000
      dxy     :     0.000000

 50 H s       :    -0.000000  s :    -0.000000
      pz      :    -0.000000  p :    -0.000000
      px      :    -0.000000
      py      :    -0.000000

 51 C s       :     0.000000  s :     0.000000
      pz      :     0.000000  p :     0.000000
      px      :     0.000000
      py      :     0.000000
      dz2     :     0.000000  d :     0.000000
      dxz     :    -0.000000
      dyz     :     0.000000
      dx2y2   :     0.000000
      dxy     :     0.000000

 52 C s       :     0.000000  s :     0.000000
      pz      :     0.000000  p :    -0.000000
      px      :    -0.000000
      py      :    -0.000000
      dz2     :    -0.000000  d :    -0.000000
      dxz     :     0.000000
      dyz     :    -0.000000
      dx2y2   :    -0.000000
      dxy     :    -0.000000

 53 C s       :    -0.000000  s :    -0.000000
      pz      :     0.000000  p :     0.000000
      px      :    -0.000000
      py      :     0.000000
      dz2     :    -0.000000  d :    -0.000000
      dxz     :    -0.000000
      dyz     :     0.000000
      dx2y2   :    -0.000000
      dxy     :    -0.000000

 54 C s       :     0.000000  s :     0.000000
      pz      :     0.000000  p :     0.000000
      px      :     0.000000
      py      :     0.000000
      dz2     :    -0.000000  d :    -0.000000
      dxz     :    -0.000000
      dyz     :    -0.000000
      dx2y2   :     0.000000
      dxy     :    -0.000000

 55 C s       :     0.000000  s :     0.000000
      pz      :     0.000000  p :     0.000000
      px      :    -0.000000
      py      :     0.000000
      dz2     :     0.000000  d :     0.000000
      dxz     :     0.000000
      dyz     :    -0.000000
      dx2y2   :    -0.000000
      dxy     :    -0.000000

 56 C s       :    -0.000000  s :    -0.000000
      pz      :    -0.000000  p :    -0.000000
      px      :    -0.000000
      py      :    -0.000000
      dz2     :     0.000000  d :     0.000000
      dxz     :     0.000000
      dyz     :    -0.000000
      dx2y2   :     0.000000
      dxy     :     0.000000

 57 H s       :    -0.000000  s :    -0.000000
      pz      :     0.000000  p :    -0.000000
      px      :    -0.000000
      py      :     0.000000

 58 C s       :    -0.000000  s :    -0.000000
      pz      :     0.000000  p :     0.000000
      px      :    -0.000000
      py      :     0.000000
      dz2     :     0.000000  d :     0.000000
      dxz     :    -0.000000
      dyz     :     0.000000
      dx2y2   :     0.000000
      dxy     :     0.000000

 59 H s       :     0.000000  s :     0.000000
      pz      :     0.000000  p :     0.000000
      px      :     0.000000
      py      :    -0.000000

 60 C s       :    -0.000000  s :    -0.000000
      pz      :    -0.000000  p :    -0.000000
      px      :     0.000000
      py      :    -0.000000
      dz2     :    -0.000000  d :     0.000000
      dxz     :     0.000000
      dyz     :    -0.000000
      dx2y2   :     0.000000
      dxy     :     0.000000

 61 H s       :    -0.000000  s :    -0.000000
      pz      :    -0.000000  p :     0.000000
      px      :    -0.000000
      py      :     0.000000

 62 C s       :     0.000000  s :     0.000000
      pz      :     0.000000  p :     0.000000
      px      :     0.000000
      py      :     0.000000
      dz2     :     0.000000  d :    -0.000000
      dxz     :    -0.000000
      dyz     :    -0.000000
      dx2y2   :     0.000000
      dxy     :    -0.000000

 63 C s       :     0.000000  s :     0.000000
      pz      :     0.000000  p :     0.000000
      px      :     0.000000
      py      :     0.000000
      dz2     :    -0.000000  d :     0.000000
      dxz     :     0.000000
      dyz     :     0.000000
      dx2y2   :    -0.000000
      dxy     :     0.000000

 64 C s       :    -0.000000  s :    -0.000000
      pz      :    -0.000000  p :    -0.000000
      px      :    -0.000000
      py      :    -0.000000
      dz2     :     0.000000  d :     0.000000
      dxz     :     0.000000
      dyz     :    -0.000000
      dx2y2   :    -0.000000
      dxy     :     0.000000

 65 C s       :    -0.000000  s :    -0.000000
      pz      :    -0.000000  p :    -0.000000
      px      :     0.000000
      py      :    -0.000000
      dz2     :    -0.000000  d :    -0.000000
      dxz     :     0.000000
      dyz     :     0.000000
      dx2y2   :    -0.000000
      dxy     :     0.000000

 66 H s       :     0.000000  s :     0.000000
      pz      :     0.000000  p :     0.000000
      px      :    -0.000000
      py      :     0.000000

 67 H s       :    -0.000000  s :    -0.000000
      pz      :     0.000000  p :     0.000000
      px      :    -0.000000
      py      :     0.000000

 68 C s       :     0.000000  s :     0.000000
      pz      :     0.000000  p :     0.000000
      px      :     0.000000
      py      :     0.000000
      dz2     :    -0.000000  d :     0.000000
      dxz     :    -0.000000
      dyz     :     0.000000
      dx2y2   :     0.000000
      dxy     :     0.000000

 69 H s       :    -0.000000  s :    -0.000000
      pz      :    -0.000000  p :    -0.000000
      px      :    -0.000000
      py      :    -0.000000

 70 H s       :    -0.000000  s :    -0.000000
      pz      :    -0.000000  p :    -0.000000
      px      :    -0.000000
      py      :     0.000000

 71 C s       :     0.000000  s :     0.000000
      pz      :     0.000000  p :     0.000000
      px      :     0.000000
      py      :    -0.000000
      dz2     :    -0.000000  d :    -0.000000
      dxz     :    -0.000000
      dyz     :    -0.000000
      dx2y2   :    -0.000000
      dxy     :    -0.000000

 72 H s       :     0.000000  s :     0.000000
      pz      :    -0.000000  p :    -0.000000
      px      :    -0.000000
      py      :    -0.000000

 73 C s       :    -0.000000  s :    -0.000000
      pz      :    -0.000000  p :    -0.000000
      px      :    -0.000000
      py      :    -0.000000
      dz2     :    -0.000000  d :     0.000000
      dxz     :     0.000000
      dyz     :     0.000000
      dx2y2   :     0.000000
      dxy     :     0.000000

 74 C s       :     0.000000  s :     0.000000
      pz      :    -0.000000  p :     0.000000
      px      :     0.000000
      py      :    -0.000000
      dz2     :     0.000000  d :     0.000000
      dxz     :     0.000000
      dyz     :    -0.000000
      dx2y2   :    -0.000000
      dxy     :     0.000000

 75 C s       :     0.000000  s :     0.000000
      pz      :     0.000000  p :    -0.000000
      px      :     0.000000
      py      :    -0.000000
      dz2     :    -0.000000  d :     0.000000
      dxz     :    -0.000000
      dyz     :     0.000000
      dx2y2   :     0.000000
      dxy     :     0.000000

 76 C s       :     0.000000  s :     0.000000
      pz      :     0.000000  p :    -0.000000
      px      :    -0.000000
      py      :    -0.000000
      dz2     :    -0.000000  d :    -0.000000
      dxz     :    -0.000000
      dyz     :    -0.000000
      dx2y2   :     0.000000
      dxy     :    -0.000000

 77 H s       :     0.000000  s :     0.000000
      pz      :     0.000000  p :     0.000000
      px      :     0.000000
      py      :     0.000000

 78 C s       :     0.000000  s :     0.000000
      pz      :     0.000000  p :     0.000000
      px      :     0.000000
      py      :     0.000000
      dz2     :     0.000000  d :     0.000000
      dxz     :    -0.000000
      dyz     :     0.000000
      dx2y2   :     0.000000
      dxy     :    -0.000000

 79 C s       :    -0.000000  s :    -0.000000
      pz      :    -0.000000  p :     0.000000
      px      :     0.000000
      py      :     0.000000
      dz2     :     0.000000  d :     0.000000
      dxz     :     0.000000
      dyz     :    -0.000000
      dx2y2   :     0.000000
      dxy     :    -0.000000

 80 H s       :     0.000000  s :     0.000000
      pz      :     0.000000  p :     0.000000
      px      :     0.000000
      py      :     0.000000

 81 C s       :    -0.000000  s :    -0.000000
      pz      :    -0.000000  p :    -0.000000
      px      :    -0.000000
      py      :    -0.000000
      dz2     :    -0.000000  d :     0.000000
      dxz     :     0.000000
      dyz     :     0.000000
      dx2y2   :    -0.000000
      dxy     :     0.000000

 82 H s       :     0.000000  s :     0.000000
      pz      :    -0.000000  p :    -0.000000
      px      :    -0.000000
      py      :     0.000000

 83 C s       :     0.000000  s :     0.000000
      pz      :    -0.000000  p :    -0.000000
      px      :    -0.000000
      py      :    -0.000000
      dz2     :    -0.000000  d :    -0.000000
      dxz     :    -0.000000
      dyz     :    -0.000000
      dx2y2   :     0.000000
      dxy     :    -0.000000

 84 C s       :    -0.000000  s :    -0.000000
      pz      :     0.000000  p :    -0.000000
      px      :     0.000000
      py      :    -0.000000
      dz2     :    -0.000000  d :    -0.000000
      dxz     :    -0.000000
      dyz     :    -0.000000
      dx2y2   :     0.000000
      dxy     :    -0.000000

 85 C s       :     0.000000  s :     0.000000
      pz      :    -0.000000  p :     0.000000
      px      :     0.000000
      py      :     0.000000
      dz2     :    -0.000000  d :    -0.000000
      dxz     :     0.000000
      dyz     :     0.000000
      dx2y2   :    -0.000000
      dxy     :    -0.000000

 86 C s       :    -0.000000  s :    -0.000000
      pz      :    -0.000000  p :    -0.000000
      px      :     0.000000
      py      :     0.000000
      dz2     :    -0.000000  d :    -0.000000
      dxz     :    -0.000000
      dyz     :    -0.000000
      dx2y2   :    -0.000000
      dxy     :    -0.000000

 87 H s       :     0.000000  s :     0.000000
      pz      :    -0.000000  p :    -0.000000
      px      :    -0.000000
      py      :     0.000000

 88 C s       :     0.000000  s :     0.000000
      pz      :     0.000000  p :     0.000000
      px      :     0.000000
      py      :     0.000000
      dz2     :    -0.000000  d :    -0.000000
      dxz     :    -0.000000
      dyz     :    -0.000000
      dx2y2   :     0.000000
      dxy     :    -0.000000

 89 C s       :     0.000000  s :     0.000000
      pz      :    -0.000000  p :     0.000000
      px      :     0.000000
      py      :     0.000000
      dz2     :    -0.000000  d :    -0.000000
      dxz     :    -0.000000
      dyz     :    -0.000000
      dx2y2   :    -0.000000
      dxy     :    -0.000000

 90 C s       :    -0.000000  s :    -0.000000
      pz      :     0.000000  p :    -0.000000
      px      :     0.000000
      py      :    -0.000000
      dz2     :    -0.000000  d :    -0.000000
      dxz     :     0.000000
      dyz     :    -0.000000
      dx2y2   :    -0.000000
      dxy     :     0.000000

 91 H s       :    -0.000000  s :    -0.000000
      pz      :    -0.000000  p :     0.000000
      px      :    -0.000000
      py      :     0.000000

 92 C s       :    -0.000000  s :    -0.000000
      pz      :    -0.000000  p :    -0.000000
      px      :    -0.000000
      py      :     0.000000
      dz2     :    -0.000000  d :    -0.000000
      dxz     :     0.000000
      dyz     :    -0.000000
      dx2y2   :    -0.000000
      dxy     :    -0.000000

 93 H s       :     0.000000  s :     0.000000
      pz      :     0.000000  p :     0.000000
      px      :     0.000000
      py      :     0.000000

 94 C s       :     0.000000  s :     0.000000
      pz      :     0.000000  p :    -0.000000
      px      :     0.000000
      py      :    -0.000000
      dz2     :     0.000000  d :     0.000000
      dxz     :    -0.000000
      dyz     :     0.000000
      dx2y2   :     0.000000
      dxy     :     0.000000

 95 H s       :     0.000000  s :     0.000000
      pz      :     0.000000  p :    -0.000000
      px      :     0.000000
      py      :    -0.000000

 96 H s       :     0.000000  s :     0.000000
      pz      :     0.000000  p :     0.000000
      px      :     0.000000
      py      :    -0.000000

 97 H s       :     0.000000  s :     0.000000
      pz      :     0.000000  p :     0.000000
      px      :    -0.000000
      py      :     0.000000

 98 H s       :     0.000000  s :     0.000000
      pz      :     0.000000  p :    -0.000000
      px      :     0.000000
      py      :    -0.000000

 99 C s       :     0.000000  s :     0.000000
      pz      :    -0.000000  p :    -0.000000
      px      :     0.000000
      py      :    -0.000000
      dz2     :     0.000000  d :     0.000000
      dxz     :     0.000000
      dyz     :     0.000000
      dx2y2   :    -0.000000
      dxy     :     0.000000

100 C s       :     0.000000  s :     0.000000
      pz      :     0.000000  p :     0.000000
      px      :     0.000000
      py      :     0.000000
      dz2     :    -0.000000  d :    -0.000000
      dxz     :    -0.000000
      dyz     :     0.000000
      dx2y2   :     0.000000
      dxy     :     0.000000



                     *******************************
                     * LOEWDIN POPULATION ANALYSIS *
                     *******************************

-------------------------------------------
LOEWDIN ATOMIC CHARGES AND SPIN POPULATIONS
-------------------------------------------
   0 Cl:    0.046065   -0.000000
   1 Cl:    0.032472    0.000000
   2 Cl:    0.061820   -0.000000
   3 Cl:    0.070180    0.000000
   4 Cl:    0.060216    0.000000
   5 Cl:    0.057748    0.000000
   6 Cl:    0.063342   -0.000000
   7 Cl:    0.057731   -0.000000
   8 Cl:    0.066272    0.000000
   9 Cl:    0.064703   -0.000000
  10 Cl:    0.064974    0.000000
  11 Cl:    0.069114    0.000000
  12 Cl:    0.053017   -0.000000
  13 Cl:    0.056744    0.000000
  14 N :   -0.109230    0.000000
  15 N :   -0.106489   -0.000000
  16 N :   -0.115430   -0.000000
  17 C :   -0.016621   -0.000000
  18 C :    0.047620    0.000000
  19 C :    0.058064   -0.000000
  20 C :   -0.043038    0.000000
  21 C :   -0.031441   -0.000000
  22 C :   -0.025739    0.000000
  23 H :    0.094171    0.000000
  24 C :   -0.029560   -0.000000
  25 C :   -0.040686   -0.000000
  26 H :    0.088363    0.000000
  27 C :   -0.027437    0.000000
  28 C :    0.001890   -0.000000
  29 C :   -0.027913   -0.000000
  30 C :   -0.042006    0.000000
  31 C :   -0.062598    0.000000
  32 H :    0.074994    0.000000
  33 C :   -0.044750    0.000000
  34 C :   -0.080879   -0.000000
  35 H :    0.074323    0.000000
  36 C :   -0.081510    0.000000
  37 H :    0.093858    0.000000
  38 C :   -0.017809   -0.000000
  39 H :    0.091065    0.000000
  40 C :   -0.066813   -0.000000
  41 C :   -0.034075   -0.000000
  42 C :   -0.080485    0.000000
  43 H :    0.075414    0.000000
  44 C :   -0.032798    0.000000
  45 C :   -0.036644   -0.000000
  46 C :   -0.040495   -0.000000
  47 H :    0.088376    0.000000
  48 C :    0.025535   -0.000000
  49 C :   -0.088487   -0.000000
  50 H :    0.083521   -0.000000
  51 C :   -0.000830    0.000000
  52 C :   -0.054462   -0.000000
  53 C :    0.024932    0.000000
  54 C :   -0.068864    0.000000
  55 C :   -0.027644    0.000000
  56 C :   -0.084150   -0.000000
  57 H :    0.100177    0.000000
  58 C :   -0.025288    0.000000
  59 H :    0.087983    0.000000
  60 C :   -0.087178   -0.000000
  61 H :    0.100906    0.000000
  62 C :   -0.078503    0.000000
  63 C :   -0.066852    0.000000
  64 C :   -0.060236   -0.000000
  65 C :   -0.116814    0.000000
  66 H :    0.075850    0.000000
  67 H :    0.083176   -0.000000
  68 C :   -0.117354   -0.000000
  69 H :    0.076405   -0.000000
  70 H :    0.082040   -0.000000
  71 C :   -0.078962    0.000000
  72 H :    0.105011   -0.000000
  73 C :   -0.040825   -0.000000
  74 C :   -0.028493   -0.000000
  75 C :   -0.058830   -0.000000
  76 C :   -0.081248    0.000000
  77 H :    0.102168   -0.000000
  78 C :   -0.069882    0.000000
  79 C :   -0.117810   -0.000000
  80 H :    0.076457    0.000000
  81 C :   -0.085134   -0.000000
  82 H :    0.101196    0.000000
  83 C :   -0.065260   -0.000000
  84 C :   -0.055992   -0.000000
  85 C :   -0.074447    0.000000
  86 C :   -0.083119   -0.000000
  87 H :    0.102110   -0.000000
  88 C :   -0.065088    0.000000
  89 C :   -0.117041    0.000000
  90 C :   -0.085790   -0.000000
  91 H :    0.101072    0.000000
  92 C :   -0.083734    0.000000
  93 H :    0.102105    0.000000
  94 C :   -0.068408   -0.000000
  95 H :    0.075231    0.000000
  96 H :    0.075449   -0.000000
  97 H :    0.082816   -0.000000
  98 H :    0.082359    0.000000
  99 C :    0.009328   -0.000000
 100 C :   -0.037195    0.000000

----------------------------------------------------
LOEWDIN REDUCED ORBITAL CHARGES AND SPIN POPULATIONS
----------------------------------------------------
CHARGE
  0 Cls       :     5.804689  s :     5.804689
      pz      :     3.872011  p :    11.117663
      px      :     3.636263
      py      :     3.609389
      dz2     :     0.004616  d :     0.031583
      dxz     :     0.003913
      dyz     :     0.004472
      dx2y2   :     0.002974
      dxy     :     0.015608

  1 Cls       :     5.802313  s :     5.802313
      pz      :     3.854698  p :    11.132725
      px      :     3.537333
      py      :     3.740695
      dz2     :     0.004328  d :     0.032491
      dxz     :     0.007061
      dyz     :     0.003168
      dx2y2   :     0.004082
      dxy     :     0.013851

  2 Cls       :     5.796675  s :     5.796675
      pz      :     3.549531  p :    11.106987
      px      :     3.622945
      py      :     3.934511
      dz2     :     0.007636  d :     0.034517
      dxz     :     0.016736
      dyz     :     0.002406
      dx2y2   :     0.005691
      dxy     :     0.002049

  3 Cls       :     5.795581  s :     5.795581
      pz      :     3.844502  p :    11.099495
      px      :     3.729081
      py      :     3.525912
      dz2     :     0.004224  d :     0.034745
      dxz     :     0.003377
      dyz     :     0.008001
      dx2y2   :     0.005569
      dxy     :     0.013572

  4 Cls       :     5.795644  s :     5.795644
      pz      :     3.623475  p :    11.109498
      px      :     3.839504
      py      :     3.646520
      dz2     :     0.005831  d :     0.034641
      dxz     :     0.005750
      dyz     :     0.012904
      dx2y2   :     0.004403
      dxy     :     0.005752

  5 Cls       :     5.796531  s :     5.796531
      pz      :     3.885617  p :    11.111417
      px      :     3.317391
      py      :     3.908409
      dz2     :     0.004848  d :     0.034303
      dxz     :     0.008379
      dyz     :     0.000624
      dx2y2   :     0.013752
      dxy     :     0.006700

  6 Cls       :     5.795626  s :     5.795626
      pz      :     3.308238  p :    11.106794
      px      :     3.897929
      py      :     3.900628
      dz2     :     0.018069  d :     0.034237
      dxz     :     0.006939
      dyz     :     0.007667
      dx2y2   :     0.000805
      dxy     :     0.000757

  7 Cls       :     5.795955  s :     5.795955
      pz      :     3.376319  p :    11.112181
      px      :     3.924407
      py      :     3.811455
      dz2     :     0.013356  d :     0.034133
      dxz     :     0.005448
      dyz     :     0.012491
      dx2y2   :     0.001298
      dxy     :     0.001540

  8 Cls       :     5.792758  s :     5.792758
      pz      :     3.724883  p :    11.106522
      px      :     3.633720
      py      :     3.747919
      dz2     :     0.004008  d :     0.034448
      dxz     :     0.010751
      dyz     :     0.006022
      dx2y2   :     0.003603
      dxy     :     0.010065

  9 Cls       :     5.795193  s :     5.795193
      pz      :     3.401925  p :    11.105489
      px      :     3.915859
      py      :     3.787705
      dz2     :     0.011809  d :     0.034615
      dxz     :     0.005547
      dyz     :     0.013681
      dx2y2   :     0.001655
      dxy     :     0.001923

 10 Cls       :     5.795293  s :     5.795293
      pz      :     3.487269  p :    11.105219
      px      :     3.710149
      py      :     3.907802
      dz2     :     0.007721  d :     0.034514
      dxz     :     0.016060
      dyz     :     0.004962
      dx2y2   :     0.003182
      dxy     :     0.002590

 11 Cls       :     5.793855  s :     5.793855
      pz      :     3.757880  p :    11.103127
      px      :     3.922844
      py      :     3.422403
      dz2     :     0.003492  d :     0.033904
      dxz     :     0.001342
      dyz     :     0.014265
      dx2y2   :     0.010193
      dxy     :     0.004612

 12 Cls       :     5.794698  s :     5.794698
      pz      :     3.944199  p :    11.118795
      px      :     3.912192
      py      :     3.262405
      dz2     :     0.006048  d :     0.033489
      dxz     :     0.000132
      dyz     :     0.003794
      dx2y2   :     0.015939
      dxy     :     0.007577

 13 Cls       :     5.795066  s :     5.795066
      pz      :     3.925294  p :    11.114779
      px      :     3.366823
      py      :     3.822662
      dz2     :     0.005434  d :     0.033411
      dxz     :     0.004602
      dyz     :     0.000934
      dx2y2   :     0.010979
      dxy     :     0.011462

 14 N s       :     3.210760  s :     3.210760
      pz      :     1.135849  p :     3.811456
      px      :     1.123887
      py      :     1.551719
      dz2     :     0.010204  d :     0.087014
      dxz     :     0.017007
      dyz     :     0.008877
      dx2y2   :     0.019398
      dxy     :     0.031527

 15 N s       :     3.208743  s :     3.208743
      pz      :     1.200974  p :     3.810134
      px      :     1.117694
      py      :     1.491466
      dz2     :     0.009359  d :     0.087612
      dxz     :     0.020812
      dyz     :     0.006645
      dx2y2   :     0.018493
      dxy     :     0.032302

 16 N s       :     3.212179  s :     3.212179
      pz      :     1.146211  p :     3.818126
      px      :     1.412200
      py      :     1.259715
      dz2     :     0.009901  d :     0.085125
      dxz     :     0.011661
      dyz     :     0.014176
      dx2y2   :     0.029366
      dxy     :     0.020020

 17 C s       :     2.895116  s :     2.895116
      pz      :     0.961184  p :     2.961298
      px      :     0.988827
      py      :     1.011288
      dz2     :     0.011725  d :     0.160207
      dxz     :     0.021205
      dyz     :     0.019664
      dx2y2   :     0.047303
      dxy     :     0.060309

 18 C s       :     2.856559  s :     2.856559
      pz      :     0.922097  p :     2.951599
      px      :     0.994203
      py      :     1.035298
      dz2     :     0.010381  d :     0.144223
      dxz     :     0.019116
      dyz     :     0.017116
      dx2y2   :     0.048948
      dxy     :     0.048661

 19 C s       :     2.859037  s :     2.859037
      pz      :     0.898640  p :     2.938238
      px      :     0.991892
      py      :     1.047706
      dz2     :     0.009378  d :     0.144661
      dxz     :     0.016737
      dyz     :     0.017502
      dx2y2   :     0.051302
      dxy     :     0.049741

 20 C s       :     2.866313  s :     2.866313
      pz      :     0.998426  p :     3.071458
      px      :     1.032680
      py      :     1.040352
      dz2     :     0.010191  d :     0.105267
      dxz     :     0.014794
      dyz     :     0.013099
      dx2y2   :     0.033873
      dxy     :     0.033310

 21 C s       :     2.862086  s :     2.862086
      pz      :     0.997159  p :     3.068125
      px      :     1.029564
      py      :     1.041403
      dz2     :     0.009225  d :     0.101229
      dxz     :     0.015062
      dyz     :     0.012806
      dx2y2   :     0.031291
      dxy     :     0.032845

 22 C s       :     2.888612  s :     2.888612
      pz      :     0.934894  p :     3.054366
      px      :     1.073555
      py      :     1.045917
      dz2     :     0.005451  d :     0.082762
      dxz     :     0.006844
      dyz     :     0.011182
      dx2y2   :     0.029172
      dxy     :     0.030113

 23 H s       :     0.861127  s :     0.861127
      pz      :     0.007626  p :     0.044702
      px      :     0.024416
      py      :     0.012660

 24 C s       :     2.861270  s :     2.861270
      pz      :     0.983022  p :     3.066372
      px      :     1.026821
      py      :     1.056529
      dz2     :     0.006903  d :     0.101918
      dxz     :     0.011541
      dyz     :     0.012727
      dx2y2   :     0.033265
      dxy     :     0.037481

 25 C s       :     2.888421  s :     2.888421
      pz      :     0.974163  p :     3.069440
      px      :     1.043929
      py      :     1.051349
      dz2     :     0.005879  d :     0.082825
      dxz     :     0.015836
      dyz     :     0.007241
      dx2y2   :     0.028271
      dxy     :     0.025598

 26 H s       :     0.868409  s :     0.868409
      pz      :     0.011257  p :     0.043227
      px      :     0.006569
      py      :     0.025401

 27 C s       :     2.861185  s :     2.861185
      pz      :     0.994974  p :     3.065428
      px      :     1.032717
      py      :     1.037736
      dz2     :     0.009095  d :     0.100825
      dxz     :     0.016081
      dyz     :     0.013002
      dx2y2   :     0.031884
      dxy     :     0.030762

 28 C s       :     2.870373  s :     2.870373
      pz      :     0.955507  p :     3.026882
      px      :     1.038100
      py      :     1.033276
      dz2     :     0.009615  d :     0.100854
      dxz     :     0.015654
      dyz     :     0.012734
      dx2y2   :     0.031947
      dxy     :     0.030904

 29 C s       :     2.860907  s :     2.860907
      pz      :     0.982955  p :     3.065598
      px      :     1.059796
      py      :     1.022846
      dz2     :     0.006897  d :     0.101409
      dxz     :     0.013132
      dyz     :     0.010726
      dx2y2   :     0.038060
      dxy     :     0.032594

 30 C s       :     2.863251  s :     2.863251
      pz      :     1.042362  p :     3.074317
      px      :     1.023356
      py      :     1.008598
      dz2     :     0.026188  d :     0.104438
      dxz     :     0.035726
      dyz     :     0.016208
      dx2y2   :     0.012572
      dxy     :     0.013743

 31 C s       :     2.890151  s :     2.890151
      pz      :     0.975729  p :     3.088663
      px      :     1.058126
      py      :     1.054808
      dz2     :     0.005575  d :     0.083784
      dxz     :     0.014551
      dyz     :     0.004294
      dx2y2   :     0.032538
      dxy     :     0.026826

 32 H s       :     0.884375  s :     0.884375
      pz      :     0.008368  p :     0.040631
      px      :     0.006117
      py      :     0.026147

 33 C s       :     2.865306  s :     2.865306
      pz      :     1.028806  p :     3.075782
      px      :     1.018447
      py      :     1.028529
      dz2     :     0.021185  d :     0.103662
      dxz     :     0.016088
      dyz     :     0.022420
      dx2y2   :     0.022465
      dxy     :     0.021504

 34 C s       :     2.888469  s :     2.888469
      pz      :     0.997921  p :     3.107785
      px      :     1.056486
      py      :     1.053377
      dz2     :     0.005576  d :     0.084625
      dxz     :     0.006859
      dyz     :     0.011479
      dx2y2   :     0.029273
      dxy     :     0.031438

 35 H s       :     0.885856  s :     0.885856
      pz      :     0.008280  p :     0.039821
      px      :     0.020954
      py      :     0.010586

 36 C s       :     2.892238  s :     2.892238
      pz      :     0.993054  p :     3.106924
      px      :     1.060838
      py      :     1.053032
      dz2     :     0.006229  d :     0.082348
      dxz     :     0.008627
      dyz     :     0.009905
      dx2y2   :     0.028895
      dxy     :     0.028692

 37 H s       :     0.864037  s :     0.864037
      pz      :     0.008772  p :     0.042104
      px      :     0.018643
      py      :     0.014689

 38 C s       :     2.896740  s :     2.896740
      pz      :     0.924647  p :     3.036660
      px      :     1.044142
      py      :     1.067872
      dz2     :     0.007584  d :     0.084410
      dxz     :     0.014172
      dyz     :     0.006039
      dx2y2   :     0.029354
      dxy     :     0.027260

 39 H s       :     0.865877  s :     0.865877
      pz      :     0.007297  p :     0.043058
      px      :     0.006307
      py      :     0.029454

 40 C s       :     2.908502  s :     2.908502
      pz      :     0.972285  p :     3.044150
      px      :     0.984960
      py      :     1.086905
      dz2     :     0.019985  d :     0.114161
      dxz     :     0.019890
      dyz     :     0.025692
      dx2y2   :     0.024330
      dxy     :     0.024263

 41 C s       :     2.863892  s :     2.863892
      pz      :     1.016486  p :     3.064471
      px      :     1.033451
      py      :     1.014534
      dz2     :     0.018734  d :     0.105712
      dxz     :     0.019417
      dyz     :     0.016393
      dx2y2   :     0.026862
      dxy     :     0.024306

 42 C s       :     2.888696  s :     2.888696
      pz      :     1.002371  p :     3.107058
      px      :     1.058532
      py      :     1.046154
      dz2     :     0.005938  d :     0.084732
      dxz     :     0.015733
      dyz     :     0.007136
      dx2y2   :     0.030326
      dxy     :     0.025599

 43 H s       :     0.884741  s :     0.884741
      pz      :     0.010724  p :     0.039846
      px      :     0.005683
      py      :     0.023439

 44 C s       :     2.893657  s :     2.893657
      pz      :     0.991997  p :     2.978558
      px      :     0.977879
      py      :     1.008682
      dz2     :     0.014616  d :     0.160582
      dxz     :     0.027646
      dyz     :     0.015976
      dx2y2   :     0.047983
      dxy     :     0.054360

 45 C s       :     2.864782  s :     2.864782
      pz      :     0.996363  p :     3.063837
      px      :     1.039848
      py      :     1.027626
      dz2     :     0.012004  d :     0.108025
      dxz     :     0.018169
      dyz     :     0.015257
      dx2y2   :     0.033709
      dxy     :     0.028886

 46 C s       :     2.892270  s :     2.892270
      pz      :     0.961143  p :     3.064858
      px      :     1.068303
      py      :     1.035412
      dz2     :     0.007421  d :     0.083368
      dxz     :     0.009913
      dyz     :     0.011886
      dx2y2   :     0.027317
      dxy     :     0.026830

 47 H s       :     0.869508  s :     0.869508
      pz      :     0.008046  p :     0.042116
      px      :     0.023933
      py      :     0.010137

 48 C s       :     2.849768  s :     2.849768
      pz      :     0.945663  p :     2.978860
      px      :     1.016205
      py      :     1.016993
      dz2     :     0.011191  d :     0.145837
      dxz     :     0.021531
      dyz     :     0.017434
      dx2y2   :     0.053700
      dxy     :     0.041981

 49 C s       :     2.891120  s :     2.891120
      pz      :     0.999925  p :     3.114304
      px      :     1.064384
      py      :     1.049995
      dz2     :     0.006911  d :     0.083062
      dxz     :     0.009633
      dyz     :     0.010265
      dx2y2   :     0.028319
      dxy     :     0.027934

 50 H s       :     0.874871  s :     0.874871
      pz      :     0.008360  p :     0.041607
      px      :     0.020722
      py      :     0.012525

 51 C s       :     2.870147  s :     2.870147
      pz      :     0.942414  p :     3.030082
      px      :     1.035350
      py      :     1.052318
      dz2     :     0.006616  d :     0.100601
      dxz     :     0.011870
      dyz     :     0.012863
      dx2y2   :     0.034065
      dxy     :     0.035187

 52 C s       :     2.890202  s :     2.890202
      pz      :     0.974951  p :     3.077991
      px      :     1.048763
      py      :     1.054276
      dz2     :     0.007818  d :     0.086268
      dxz     :     0.008437
      dyz     :     0.013591
      dx2y2   :     0.025882
      dxy     :     0.030540

 53 C s       :     2.850396  s :     2.850396
      pz      :     0.943603  p :     2.978925
      px      :     1.027640
      py      :     1.007682
      dz2     :     0.010602  d :     0.145747
      dxz     :     0.013673
      dyz     :     0.022380
      dx2y2   :     0.044104
      dxy     :     0.054988

 54 C s       :     2.907930  s :     2.907930
      pz      :     0.988735  p :     3.047443
      px      :     1.070799
      py      :     0.987909
      dz2     :     0.017660  d :     0.113491
      dxz     :     0.027562
      dyz     :     0.016173
      dx2y2   :     0.025661
      dxy     :     0.026436

 55 C s       :     2.871965  s :     2.871965
      pz      :     0.973328  p :     3.056057
      px      :     1.054350
      py      :     1.028379
      dz2     :     0.008255  d :     0.099623
      dxz     :     0.013054
      dyz     :     0.013602
      dx2y2   :     0.031086
      dxy     :     0.033626

 56 C s       :     2.891740  s :     2.891740
      pz      :     1.017099  p :     3.108071
      px      :     1.069569
      py      :     1.021403
      dz2     :     0.014851  d :     0.084338
      dxz     :     0.016592
      dyz     :     0.015112
      dx2y2   :     0.019985
      dxy     :     0.017798

 57 H s       :     0.857282  s :     0.857282
      pz      :     0.007064  p :     0.042540
      px      :     0.028364
      py      :     0.007111

 58 C s       :     2.893967  s :     2.893967
      pz      :     0.945747  p :     3.046476
      px      :     1.052960
      py      :     1.047769
      dz2     :     0.005965  d :     0.084845
      dxz     :     0.016339
      dyz     :     0.007021
      dx2y2   :     0.028525
      dxy     :     0.026996

 59 H s       :     0.870579  s :     0.870579
      pz      :     0.010196  p :     0.041438
      px      :     0.006135
      py      :     0.025107

 60 C s       :     2.892375  s :     2.892375
      pz      :     1.031350  p :     3.110322
      px      :     1.045304
      py      :     1.033668
      dz2     :     0.010161  d :     0.084481
      dxz     :     0.020709
      dyz     :     0.009327
      dx2y2   :     0.021803
      dxy     :     0.022481

 61 H s       :     0.857100  s :     0.857100
      pz      :     0.016810  p :     0.041995
      px      :     0.007416
      py      :     0.017768

 62 C s       :     2.902664  s :     2.902664
      pz      :     1.011824  p :     3.058221
      px      :     1.029655
      py      :     1.016742
      dz2     :     0.018099  d :     0.117618
      dxz     :     0.027929
      dyz     :     0.015466
      dx2y2   :     0.027294
      dxy     :     0.028829

 63 C s       :     2.908858  s :     2.908858
      pz      :     1.048486  p :     3.045030
      px      :     0.940416
      py      :     1.056129
      dz2     :     0.018250  d :     0.112963
      dxz     :     0.025397
      dyz     :     0.014213
      dx2y2   :     0.029021
      dxy     :     0.026083

 64 C s       :     2.909392  s :     2.909392
      pz      :     1.044200  p :     3.036483
      px      :     0.996618
      py      :     0.995665
      dz2     :     0.021448  d :     0.114361
      dxz     :     0.016619
      dyz     :     0.027952
      dx2y2   :     0.022911
      dxy     :     0.025431

 65 C s       :     2.880900  s :     2.880900
      pz      :     1.059781  p :     3.152849
      px      :     1.062147
      py      :     1.030921
      dz2     :     0.017005  d :     0.083065
      dxz     :     0.015188
      dyz     :     0.016908
      dx2y2   :     0.020610
      dxy     :     0.013353

 66 H s       :     0.885664  s :     0.885664
      pz      :     0.007382  p :     0.038485
      px      :     0.021703
      py      :     0.009400

 67 H s       :     0.878416  s :     0.878416
      pz      :     0.019240  p :     0.038408
      px      :     0.008829
      py      :     0.010340

 68 C s       :     2.880973  s :     2.880973
      pz      :     1.054759  p :     3.153853
      px      :     1.028839
      py      :     1.070255
      dz2     :     0.018222  d :     0.082528
      dxz     :     0.021911
      dyz     :     0.008195
      dx2y2   :     0.020036
      dxy     :     0.014164

 69 H s       :     0.885077  s :     0.885077
      pz      :     0.006981  p :     0.038518
      px      :     0.006870
      py      :     0.024668

 70 H s       :     0.879592  s :     0.879592
      pz      :     0.019972  p :     0.038368
      px      :     0.009713
      py      :     0.008683

 71 C s       :     2.892728  s :     2.892728
      pz      :     1.039978  p :     3.102495
      px      :     1.026992
      py      :     1.035525
      dz2     :     0.011703  d :     0.083739
      dxz     :     0.010623
      dyz     :     0.021109
      dx2y2   :     0.019665
      dxy     :     0.020640

 72 H s       :     0.852749  s :     0.852749
      pz      :     0.020076  p :     0.042240
      px      :     0.016852
      py      :     0.005312

 73 C s       :     2.865441  s :     2.865441
      pz      :     1.043328  p :     3.069725
      px      :     0.997011
      py      :     1.029386
      dz2     :     0.025624  d :     0.105658
      dxz     :     0.013078
      dyz     :     0.042072
      dx2y2   :     0.012683
      dxy     :     0.012202

 74 C s       :     2.871272  s :     2.871272
      pz      :     0.974961  p :     3.057334
      px      :     1.028845
      py      :     1.053528
      dz2     :     0.009508  d :     0.099887
      dxz     :     0.011705
      dyz     :     0.014890
      dx2y2   :     0.031151
      dxy     :     0.032634

 75 C s       :     2.907403  s :     2.907403
      pz      :     0.945889  p :     3.037053
      px      :     1.072012
      py      :     1.019152
      dz2     :     0.032870  d :     0.114374
      dxz     :     0.034726
      dyz     :     0.016751
      dx2y2   :     0.015130
      dxy     :     0.014898

 76 C s       :     2.891956  s :     2.891956
      pz      :     1.022070  p :     3.105609
      px      :     1.029188
      py      :     1.054351
      dz2     :     0.016160  d :     0.083683
      dxz     :     0.014678
      dyz     :     0.019505
      dx2y2   :     0.016269
      dxy     :     0.017071

 77 H s       :     0.855286  s :     0.855286
      pz      :     0.007772  p :     0.042546
      px      :     0.014229
      py      :     0.020546

 78 C s       :     2.908617  s :     2.908617
      pz      :     0.962325  p :     3.046512
      px      :     1.023918
      py      :     1.060269
      dz2     :     0.032157  d :     0.114753
      dxz     :     0.014507
      dyz     :     0.038678
      dx2y2   :     0.014246
      dxy     :     0.015164

 79 C s       :     2.881153  s :     2.881153
      pz      :     1.083316  p :     3.154074
      px      :     1.044173
      py      :     1.026585
      dz2     :     0.019233  d :     0.082583
      dxz     :     0.012809
      dyz     :     0.011675
      dx2y2   :     0.016878
      dxy     :     0.021989

 80 H s       :     0.885033  s :     0.885033
      pz      :     0.011057  p :     0.038510
      px      :     0.016556
      py      :     0.010897

 81 C s       :     2.892098  s :     2.892098
      pz      :     1.061545  p :     3.109575
      px      :     1.000539
      py      :     1.047490
      dz2     :     0.021906  d :     0.083461
      dxz     :     0.007494
      dyz     :     0.028725
      dx2y2   :     0.013277
      dxy     :     0.012060

 82 H s       :     0.856762  s :     0.856762
      pz      :     0.022658  p :     0.042042
      px      :     0.008281
      py      :     0.011103

 83 C s       :     2.903622  s :     2.903622
      pz      :     1.019000  p :     3.044320
      px      :     1.053879
      py      :     0.971441
      dz2     :     0.020329  d :     0.117318
      dxz     :     0.016387
      dyz     :     0.028627
      dx2y2   :     0.027247
      dxy     :     0.024728

 84 C s       :     2.907245  s :     2.907245
      pz      :     0.987884  p :     3.034047
      px      :     1.028081
      py      :     1.018082
      dz2     :     0.030345  d :     0.114700
      dxz     :     0.036520
      dyz     :     0.018091
      dx2y2   :     0.014978
      dxy     :     0.014766

 85 C s       :     2.904229  s :     2.904229
      pz      :     1.106925  p :     3.053551
      px      :     1.012960
      py      :     0.933666
      dz2     :     0.031325  d :     0.116667
      dxz     :     0.016273
      dyz     :     0.037325
      dx2y2   :     0.017697
      dxy     :     0.014047

 86 C s       :     2.891145  s :     2.891145
      pz      :     1.064434  p :     3.108331
      px      :     1.038198
      py      :     1.005699
      dz2     :     0.020545  d :     0.083643
      dxz     :     0.026143
      dyz     :     0.008786
      dx2y2   :     0.013932
      dxy     :     0.014238

 87 H s       :     0.855851  s :     0.855851
      pz      :     0.026012  p :     0.042039
      px      :     0.007144
      py      :     0.008884

 88 C s       :     2.908296  s :     2.908296
      pz      :     0.970588  p :     3.041745
      px      :     1.013808
      py      :     1.057349
      dz2     :     0.031591  d :     0.115047
      dxz     :     0.014321
      dyz     :     0.039671
      dx2y2   :     0.014474
      dxy     :     0.014990

 89 C s       :     2.880409  s :     2.880409
      pz      :     1.075191  p :     3.153614
      px      :     1.047521
      py      :     1.030902
      dz2     :     0.024275  d :     0.083018
      dxz     :     0.009008
      dyz     :     0.011143
      dx2y2   :     0.016291
      dxy     :     0.022302

 90 C s       :     2.892096  s :     2.892096
      pz      :     1.061766  p :     3.110157
      px      :     1.000742
      py      :     1.047649
      dz2     :     0.021540  d :     0.083537
      dxz     :     0.007315
      dyz     :     0.028693
      dx2y2   :     0.013809
      dxy     :     0.012180

 91 H s       :     0.856906  s :     0.856906
      pz      :     0.023637  p :     0.042022
      px      :     0.007821
      py      :     0.010564

 92 C s       :     2.891358  s :     2.891358
      pz      :     1.056989  p :     3.108846
      px      :     1.045317
      py      :     1.006539
      dz2     :     0.022551  d :     0.083530
      dxz     :     0.025704
      dyz     :     0.011687
      dx2y2   :     0.012205
      dxy     :     0.011382

 93 H s       :     0.855841  s :     0.855841
      pz      :     0.019416  p :     0.042054
      px      :     0.014700
      py      :     0.007937

 94 C s       :     2.904592  s :     2.904592
      pz      :     1.101795  p :     3.047020
      px      :     0.949968
      py      :     0.995256
      dz2     :     0.030835  d :     0.116796
      dxz     :     0.034971
      dyz     :     0.018689
      dx2y2   :     0.016036
      dxy     :     0.016266

 95 H s       :     0.885052  s :     0.885052
      pz      :     0.007735  p :     0.039718
      px      :     0.019514
      py      :     0.012468

 96 H s       :     0.886084  s :     0.886084
      pz      :     0.007294  p :     0.038467
      px      :     0.019340
      py      :     0.011833

 97 H s       :     0.878803  s :     0.878803
      pz      :     0.024995  p :     0.038381
      px      :     0.006799
      py      :     0.006587

 98 H s       :     0.879303  s :     0.879303
      pz      :     0.023787  p :     0.038338
      px      :     0.007973
      py      :     0.006578

 99 C s       :     2.873104  s :     2.873104
      pz      :     0.986576  p :     3.023218
      px      :     1.030668
      py      :     1.005974
      dz2     :     0.010592  d :     0.094351
      dxz     :     0.015598
      dyz     :     0.012437
      dx2y2   :     0.029015
      dxy     :     0.026709

100 C s       :     2.865744  s :     2.865744
      pz      :     1.038964  p :     3.077966
      px      :     1.029508
      py      :     1.009494
      dz2     :     0.010448  d :     0.093485
      dxz     :     0.014268
      dyz     :     0.011673
      dx2y2   :     0.028533
      dxy     :     0.028563


SPIN
  0 Cls       :    -0.000000  s :    -0.000000
      pz      :    -0.000000  p :    -0.000000
      px      :    -0.000000
      py      :    -0.000000
      dz2     :    -0.000000  d :    -0.000000
      dxz     :    -0.000000
      dyz     :    -0.000000
      dx2y2   :    -0.000000
      dxy     :    -0.000000

  1 Cls       :     0.000000  s :     0.000000
      pz      :     0.000000  p :     0.000000
      px      :     0.000000
      py      :     0.000000
      dz2     :     0.000000  d :     0.000000
      dxz     :     0.000000
      dyz     :     0.000000
      dx2y2   :    -0.000000
      dxy     :     0.000000

  2 Cls       :    -0.000000  s :    -0.000000
      pz      :     0.000000  p :     0.000000
      px      :    -0.000000
      py      :     0.000000
      dz2     :    -0.000000  d :    -0.000000
      dxz     :    -0.000000
      dyz     :    -0.000000
      dx2y2   :    -0.000000
      dxy     :    -0.000000

  3 Cls       :    -0.000000  s :    -0.000000
      pz      :     0.000000  p :     0.000000
      px      :    -0.000000
      py      :     0.000000
      dz2     :    -0.000000  d :    -0.000000
      dxz     :    -0.000000
      dyz     :    -0.000000
      dx2y2   :    -0.000000
      dxy     :    -0.000000

  4 Cls       :    -0.000000  s :    -0.000000
      pz      :     0.000000  p :     0.000000
      px      :     0.000000
      py      :     0.000000
      dz2     :     0.000000  d :     0.000000
      dxz     :     0.000000
      dyz     :    -0.000000
      dx2y2   :     0.000000
      dxy     :     0.000000

  5 Cls       :    -0.000000  s :    -0.000000
      pz      :     0.000000  p :     0.000000
      px      :     0.000000
      py      :     0.000000
      dz2     :     0.000000  d :     0.000000
      dxz     :     0.000000
      dyz     :    -0.000000
      dx2y2   :     0.000000
      dxy     :     0.000000

  6 Cls       :     0.000000  s :     0.000000
      pz      :    -0.000000  p :    -0.000000
      px      :    -0.000000
      py      :     0.000000
      dz2     :     0.000000  d :    -0.000000
      dxz     :     0.000000
      dyz     :    -0.000000
      dx2y2   :    -0.000000
      dxy     :    -0.000000

  7 Cls       :    -0.000000  s :    -0.000000
      pz      :     0.000000  p :    -0.000000
      px      :    -0.000000
      py      :    -0.000000
      dz2     :     0.000000  d :     0.000000
      dxz     :     0.000000
      dyz     :     0.000000
      dx2y2   :    -0.000000
      dxy     :     0.000000

  8 Cls       :     0.000000  s :     0.000000
      pz      :     0.000000  p :     0.000000
      px      :    -0.000000
      py      :     0.000000
      dz2     :     0.000000  d :     0.000000
      dxz     :     0.000000
      dyz     :     0.000000
      dx2y2   :     0.000000
      dxy     :     0.000000

  9 Cls       :    -0.000000  s :    -0.000000
      pz      :    -0.000000  p :    -0.000000
      px      :    -0.000000
      py      :    -0.000000
      dz2     :    -0.000000  d :     0.000000
      dxz     :     0.000000
      dyz     :     0.000000
      dx2y2   :     0.000000
      dxy     :     0.000000

 10 Cls       :     0.000000  s :     0.000000
      pz      :     0.000000  p :     0.000000
      px      :     0.000000
      py      :     0.000000
      dz2     :     0.000000  d :    -0.000000
      dxz     :    -0.000000
      dyz     :    -0.000000
      dx2y2   :    -0.000000
      dxy     :    -0.000000

 11 Cls       :     0.000000  s :     0.000000
      pz      :     0.000000  p :     0.000000
      px      :     0.000000
      py      :     0.000000
      dz2     :    -0.000000  d :    -0.000000
      dxz     :    -0.000000
      dyz     :    -0.000000
      dx2y2   :     0.000000
      dxy     :    -0.000000

 12 Cls       :    -0.000000  s :    -0.000000
      pz      :     0.000000  p :    -0.000000
      px      :     0.000000
      py      :    -0.000000
      dz2     :     0.000000  d :     0.000000
      dxz     :    -0.000000
      dyz     :    -0.000000
      dx2y2   :    -0.000000
      dxy     :     0.000000

 13 Cls       :     0.000000  s :     0.000000
      pz      :     0.000000  p :    -0.000000
      px      :    -0.000000
      py      :    -0.000000
      dz2     :    -0.000000  d :    -0.000000
      dxz     :     0.000000
      dyz     :     0.000000
      dx2y2   :    -0.000000
      dxy     :    -0.000000

 14 N s       :    -0.000000  s :    -0.000000
      pz      :     0.000000  p :     0.000000
      px      :     0.000000
      py      :    -0.000000
      dz2     :    -0.000000  d :    -0.000000
      dxz     :    -0.000000
      dyz     :    -0.000000
      dx2y2   :    -0.000000
      dxy     :    -0.000000

 15 N s       :    -0.000000  s :    -0.000000
      pz      :    -0.000000  p :    -0.000000
      px      :    -0.000000
      py      :     0.000000
      dz2     :     0.000000  d :     0.000000
      dxz     :     0.000000
      dyz     :     0.000000
      dx2y2   :     0.000000
      dxy     :     0.000000

 16 N s       :    -0.000000  s :    -0.000000
      pz      :     0.000000  p :    -0.000000
      px      :    -0.000000
      py      :     0.000000
      dz2     :     0.000000  d :     0.000000
      dxz     :     0.000000
      dyz     :     0.000000
      dx2y2   :     0.000000
      dxy     :    -0.000000

 17 C s       :    -0.000000  s :    -0.000000
      pz      :    -0.000000  p :    -0.000000
      px      :    -0.000000
      py      :    -0.000000
      dz2     :     0.000000  d :     0.000000
      dxz     :     0.000000
      dyz     :     0.000000
      dx2y2   :    -0.000000
      dxy     :     0.000000

 18 C s       :    -0.000000  s :    -0.000000
      pz      :     0.000000  p :     0.000000
      px      :     0.000000
      py      :     0.000000
      dz2     :    -0.000000  d :    -0.000000
      dxz     :    -0.000000
      dyz     :    -0.000000
      dx2y2   :    -0.000000
      dxy     :     0.000000

 19 C s       :     0.000000  s :     0.000000
      pz      :    -0.000000  p :    -0.000000
      px      :    -0.000000
      py      :     0.000000
      dz2     :     0.000000  d :     0.000000
      dxz     :     0.000000
      dyz     :     0.000000
      dx2y2   :     0.000000
      dxy     :     0.000000

 20 C s       :     0.000000  s :     0.000000
      pz      :     0.000000  p :     0.000000
      px      :     0.000000
      py      :     0.000000
      dz2     :    -0.000000  d :    -0.000000
      dxz     :    -0.000000
      dyz     :    -0.000000
      dx2y2   :    -0.000000
      dxy     :    -0.000000

 21 C s       :    -0.000000  s :    -0.000000
      pz      :     0.000000  p :     0.000000
      px      :     0.000000
      py      :     0.000000
      dz2     :    -0.000000  d :    -0.000000
      dxz     :    -0.000000
      dyz     :    -0.000000
      dx2y2   :    -0.000000
      dxy     :    -0.000000

 22 C s       :    -0.000000  s :    -0.000000
      pz      :     0.000000  p :     0.000000
      px      :    -0.000000
      py      :    -0.000000
      dz2     :     0.000000  d :     0.000000
      dxz     :    -0.000000
      dyz     :    -0.000000
      dx2y2   :    -0.000000
      dxy     :     0.000000

 23 H s       :     0.000000  s :     0.000000
      pz      :     0.000000  p :     0.000000
      px      :     0.000000
      py      :    -0.000000

 24 C s       :     0.000000  s :     0.000000
      pz      :    -0.000000  p :    -0.000000
      px      :    -0.000000
      py      :    -0.000000
      dz2     :     0.000000  d :     0.000000
      dxz     :     0.000000
      dyz     :     0.000000
      dx2y2   :     0.000000
      dxy     :     0.000000

 25 C s       :    -0.000000  s :    -0.000000
      pz      :    -0.000000  p :    -0.000000
      px      :     0.000000
      py      :    -0.000000
      dz2     :    -0.000000  d :    -0.000000
      dxz     :     0.000000
      dyz     :    -0.000000
      dx2y2   :     0.000000
      dxy     :    -0.000000

 26 H s       :     0.000000  s :     0.000000
      pz      :    -0.000000  p :    -0.000000
      px      :     0.000000
      py      :    -0.000000

 27 C s       :     0.000000  s :     0.000000
      pz      :    -0.000000  p :    -0.000000
      px      :     0.000000
      py      :    -0.000000
      dz2     :     0.000000  d :     0.000000
      dxz     :    -0.000000
      dyz     :    -0.000000
      dx2y2   :     0.000000
      dxy     :     0.000000

 28 C s       :     0.000000  s :     0.000000
      pz      :    -0.000000  p :    -0.000000
      px      :    -0.000000
      py      :    -0.000000
      dz2     :     0.000000  d :     0.000000
      dxz     :     0.000000
      dyz     :    -0.000000
      dx2y2   :    -0.000000
      dxy     :    -0.000000

 29 C s       :    -0.000000  s :    -0.000000
      pz      :    -0.000000  p :    -0.000000
      px      :    -0.000000
      py      :     0.000000
      dz2     :    -0.000000  d :     0.000000
      dxz     :     0.000000
      dyz     :    -0.000000
      dx2y2   :     0.000000
      dxy     :    -0.000000

 30 C s       :     0.000000  s :     0.000000
      pz      :    -0.000000  p :     0.000000
      px      :     0.000000
      py      :     0.000000
      dz2     :    -0.000000  d :    -0.000000
      dxz     :    -0.000000
      dyz     :    -0.000000
      dx2y2   :    -0.000000
      dxy     :    -0.000000

 31 C s       :     0.000000  s :     0.000000
      pz      :     0.000000  p :     0.000000
      px      :    -0.000000
      py      :     0.000000
      dz2     :    -0.000000  d :    -0.000000
      dxz     :    -0.000000
      dyz     :    -0.000000
      dx2y2   :    -0.000000
      dxy     :    -0.000000

 32 H s       :     0.000000  s :     0.000000
      pz      :     0.000000  p :     0.000000
      px      :     0.000000
      py      :    -0.000000

 33 C s       :     0.000000  s :     0.000000
      pz      :     0.000000  p :     0.000000
      px      :     0.000000
      py      :     0.000000
      dz2     :    -0.000000  d :    -0.000000
      dxz     :    -0.000000
      dyz     :    -0.000000
      dx2y2   :    -0.000000
      dxy     :    -0.000000

 34 C s       :    -0.000000  s :    -0.000000
      pz      :    -0.000000  p :    -0.000000
      px      :     0.000000
      py      :     0.000000
      dz2     :     0.000000  d :     0.000000
      dxz     :     0.000000
      dyz     :     0.000000
      dx2y2   :     0.000000
      dxy     :     0.000000

 35 H s       :     0.000000  s :     0.000000
      pz      :    -0.000000  p :    -0.000000
      px      :    -0.000000
      py      :    -0.000000

 36 C s       :     0.000000  s :     0.000000
      pz      :     0.000000  p :     0.000000
      px      :     0.000000
      py      :     0.000000
      dz2     :    -0.000000  d :    -0.000000
      dxz     :    -0.000000
      dyz     :    -0.000000
      dx2y2   :    -0.000000
      dxy     :     0.000000

 37 H s       :     0.000000  s :     0.000000
      pz      :     0.000000  p :     0.000000
      px      :     0.000000
      py      :     0.000000

 38 C s       :    -0.000000  s :    -0.000000
      pz      :    -0.000000  p :    -0.000000
      px      :    -0.000000
      py      :    -0.000000
      dz2     :     0.000000  d :     0.000000
      dxz     :     0.000000
      dyz     :     0.000000
      dx2y2   :     0.000000
      dxy     :    -0.000000

 39 H s       :     0.000000  s :     0.000000
      pz      :    -0.000000  p :    -0.000000
      px      :    -0.000000
      py      :    -0.000000

 40 C s       :    -0.000000  s :    -0.000000
      pz      :    -0.000000  p :    -0.000000
      px      :    -0.000000
      py      :    -0.000000
      dz2     :     0.000000  d :     0.000000
      dxz     :     0.000000
      dyz     :     0.000000
      dx2y2   :     0.000000
      dxy     :     0.000000

 41 C s       :     0.000000  s :     0.000000
      pz      :    -0.000000  p :    -0.000000
      px      :    -0.000000
      py      :    -0.000000
      dz2     :     0.000000  d :     0.000000
      dxz     :     0.000000
      dyz     :     0.000000
      dx2y2   :     0.000000
      dxy     :     0.000000

 42 C s       :     0.000000  s :     0.000000
      pz      :     0.000000  p :     0.000000
      px      :     0.000000
      py      :     0.000000
      dz2     :     0.000000  d :    -0.000000
      dxz     :    -0.000000
      dyz     :     0.000000
      dx2y2   :     0.000000
      dxy     :    -0.000000

 43 H s       :     0.000000  s :     0.000000
      pz      :    -0.000000  p :     0.000000
      px      :     0.000000
      py      :     0.000000

 44 C s       :     0.000000  s :     0.000000
      pz      :     0.000000  p :     0.000000
      px      :     0.000000
      py      :     0.000000
      dz2     :    -0.000000  d :    -0.000000
      dxz     :    -0.000000
      dyz     :    -0.000000
      dx2y2   :     0.000000
      dxy     :     0.000000

 45 C s       :    -0.000000  s :    -0.000000
      pz      :    -0.000000  p :    -0.000000
      px      :    -0.000000
      py      :    -0.000000
      dz2     :     0.000000  d :     0.000000
      dxz     :     0.000000
      dyz     :     0.000000
      dx2y2   :     0.000000
      dxy     :     0.000000

 46 C s       :     0.000000  s :     0.000000
      pz      :    -0.000000  p :    -0.000000
      px      :    -0.000000
      py      :    -0.000000
      dz2     :     0.000000  d :     0.000000
      dxz     :     0.000000
      dyz     :    -0.000000
      dx2y2   :    -0.000000
      dxy     :     0.000000

 47 H s       :     0.000000  s :     0.000000
      pz      :    -0.000000  p :    -0.000000
      px      :     0.000000
      py      :    -0.000000

 48 C s       :     0.000000  s :     0.000000
      pz      :    -0.000000  p :    -0.000000
      px      :    -0.000000
      py      :    -0.000000
      dz2     :    -0.000000  d :     0.000000
      dxz     :    -0.000000
      dyz     :     0.000000
      dx2y2   :     0.000000
      dxy     :    -0.000000

 49 C s       :    -0.000000  s :    -0.000000
      pz      :    -0.000000  p :    -0.000000
      px      :    -0.000000
      py      :    -0.000000
      dz2     :     0.000000  d :     0.000000
      dxz     :     0.000000
      dyz     :     0.000000
      dx2y2   :     0.000000
      dxy     :     0.000000

 50 H s       :    -0.000000  s :    -0.000000
      pz      :    -0.000000  p :    -0.000000
      px      :     0.000000
      py      :    -0.000000

 51 C s       :     0.000000  s :     0.000000
      pz      :     0.000000  p :     0.000000
      px      :     0.000000
      py      :     0.000000
      dz2     :    -0.000000  d :     0.000000
      dxz     :    -0.000000
      dyz     :    -0.000000
      dx2y2   :     0.000000
      dxy     :     0.000000

 52 C s       :     0.000000  s :     0.000000
      pz      :     0.000000  p :     0.000000
      px      :    -0.000000
      py      :     0.000000
      dz2     :    -0.000000  d :    -0.000000
      dxz     :    -0.000000
      dyz     :    -0.000000
      dx2y2   :    -0.000000
      dxy     :    -0.000000

 53 C s       :     0.000000  s :     0.000000
      pz      :     0.000000  p :     0.000000
      px      :    -0.000000
      py      :     0.000000
      dz2     :    -0.000000  d :    -0.000000
      dxz     :    -0.000000
      dyz     :     0.000000
      dx2y2   :    -0.000000
      dxy     :     0.000000

 54 C s       :     0.000000  s :     0.000000
      pz      :     0.000000  p :     0.000000
      px      :     0.000000
      py      :     0.000000
      dz2     :    -0.000000  d :    -0.000000
      dxz     :    -0.000000
      dyz     :    -0.000000
      dx2y2   :     0.000000
      dxy     :    -0.000000

 55 C s       :     0.000000  s :     0.000000
      pz      :    -0.000000  p :    -0.000000
      px      :    -0.000000
      py      :    -0.000000
      dz2     :     0.000000  d :     0.000000
      dxz     :     0.000000
      dyz     :     0.000000
      dx2y2   :    -0.000000
      dxy     :     0.000000

 56 C s       :    -0.000000  s :    -0.000000
      pz      :    -0.000000  p :    -0.000000
      px      :     0.000000
      py      :    -0.000000
      dz2     :     0.000000  d :     0.000000
      dxz     :     0.000000
      dyz     :    -0.000000
      dx2y2   :     0.000000
      dxy     :     0.000000

 57 H s       :     0.000000  s :     0.000000
      pz      :    -0.000000  p :    -0.000000
      px      :    -0.000000
      py      :    -0.000000

 58 C s       :    -0.000000  s :    -0.000000
      pz      :     0.000000  p :     0.000000
      px      :     0.000000
      py      :     0.000000
      dz2     :     0.000000  d :    -0.000000
      dxz     :    -0.000000
      dyz     :     0.000000
      dx2y2   :    -0.000000
      dxy     :    -0.000000

 59 H s       :     0.000000  s :     0.000000
      pz      :     0.000000  p :     0.000000
      px      :     0.000000
      py      :    -0.000000

 60 C s       :    -0.000000  s :    -0.000000
      pz      :    -0.000000  p :    -0.000000
      px      :     0.000000
      py      :    -0.000000
      dz2     :     0.000000  d :     0.000000
      dxz     :     0.000000
      dyz     :     0.000000
      dx2y2   :     0.000000
      dxy     :     0.000000

 61 H s       :     0.000000  s :     0.000000
      pz      :    -0.000000  p :    -0.000000
      px      :     0.000000
      py      :     0.000000

 62 C s       :     0.000000  s :     0.000000
      pz      :     0.000000  p :     0.000000
      px      :     0.000000
      py      :     0.000000
      dz2     :    -0.000000  d :    -0.000000
      dxz     :    -0.000000
      dyz     :    -0.000000
      dx2y2   :    -0.000000
      dxy     :    -0.000000

 63 C s       :     0.000000  s :     0.000000
      pz      :     0.000000  p :     0.000000
      px      :     0.000000
      py      :     0.000000
      dz2     :    -0.000000  d :    -0.000000
      dxz     :    -0.000000
      dyz     :    -0.000000
      dx2y2   :    -0.000000
      dxy     :     0.000000

 64 C s       :     0.000000  s :     0.000000
      pz      :    -0.000000  p :    -0.000000
      px      :    -0.000000
      py      :    -0.000000
      dz2     :     0.000000  d :     0.000000
      dxz     :     0.000000
      dyz     :     0.000000
      dx2y2   :    -0.000000
      dxy     :     0.000000

 65 C s       :     0.000000  s :     0.000000
      pz      :     0.000000  p :     0.000000
      px      :     0.000000
      py      :    -0.000000
      dz2     :     0.000000  d :     0.000000
      dxz     :     0.000000
      dyz     :     0.000000
      dx2y2   :    -0.000000
      dxy     :    -0.000000

 66 H s       :     0.000000  s :     0.000000
      pz      :    -0.000000  p :    -0.000000
      px      :    -0.000000
      py      :    -0.000000

 67 H s       :    -0.000000  s :    -0.000000
      pz      :     0.000000  p :     0.000000
      px      :    -0.000000
      py      :     0.000000

 68 C s       :    -0.000000  s :    -0.000000
      pz      :    -0.000000  p :     0.000000
      px      :     0.000000
      py      :     0.000000
      dz2     :    -0.000000  d :    -0.000000
      dxz     :    -0.000000
      dyz     :    -0.000000
      dx2y2   :    -0.000000
      dxy     :    -0.000000

 69 H s       :    -0.000000  s :    -0.000000
      pz      :     0.000000  p :     0.000000
      px      :     0.000000
      py      :     0.000000

 70 H s       :    -0.000000  s :    -0.000000
      pz      :    -0.000000  p :    -0.000000
      px      :     0.000000
      py      :     0.000000

 71 C s       :    -0.000000  s :    -0.000000
      pz      :     0.000000  p :     0.000000
      px      :     0.000000
      py      :     0.000000
      dz2     :    -0.000000  d :    -0.000000
      dxz     :    -0.000000
      dyz     :    -0.000000
      dx2y2   :    -0.000000
      dxy     :    -0.000000

 72 H s       :    -0.000000  s :    -0.000000
      pz      :    -0.000000  p :    -0.000000
      px      :    -0.000000
      py      :     0.000000

 73 C s       :    -0.000000  s :    -0.000000
      pz      :     0.000000  p :    -0.000000
      px      :    -0.000000
      py      :    -0.000000
      dz2     :    -0.000000  d :     0.000000
      dxz     :     0.000000
      dyz     :     0.000000
      dx2y2   :     0.000000
      dxy     :     0.000000

 74 C s       :    -0.000000  s :    -0.000000
      pz      :    -0.000000  p :    -0.000000
      px      :     0.000000
      py      :    -0.000000
      dz2     :     0.000000  d :     0.000000
      dxz     :     0.000000
      dyz     :    -0.000000
      dx2y2   :     0.000000
      dxy     :     0.000000

 75 C s       :    -0.000000  s :    -0.000000
      pz      :    -0.000000  p :    -0.000000
      px      :    -0.000000
      py      :    -0.000000
      dz2     :     0.000000  d :     0.000000
      dxz     :    -0.000000
      dyz     :     0.000000
      dx2y2   :     0.000000
      dxy     :     0.000000

 76 C s       :     0.000000  s :     0.000000
      pz      :     0.000000  p :     0.000000
      px      :     0.000000
      py      :     0.000000
      dz2     :    -0.000000  d :    -0.000000
      dxz     :    -0.000000
      dyz     :    -0.000000
      dx2y2   :    -0.000000
      dxy     :    -0.000000

 77 H s       :    -0.000000  s :    -0.000000
      pz      :     0.000000  p :     0.000000
      px      :     0.000000
      py      :     0.000000

 78 C s       :     0.000000  s :     0.000000
      pz      :     0.000000  p :     0.000000
      px      :     0.000000
      py      :    -0.000000
      dz2     :    -0.000000  d :     0.000000
      dxz     :    -0.000000
      dyz     :     0.000000
      dx2y2   :     0.000000
      dxy     :    -0.000000

 79 C s       :    -0.000000  s :    -0.000000
      pz      :    -0.000000  p :    -0.000000
      px      :     0.000000
      py      :    -0.000000
      dz2     :     0.000000  d :     0.000000
      dxz     :     0.000000
      dyz     :     0.000000
      dx2y2   :     0.000000
      dxy     :    -0.000000

 80 H s       :     0.000000  s :     0.000000
      pz      :    -0.000000  p :    -0.000000
      px      :    -0.000000
      py      :    -0.000000

 81 C s       :    -0.000000  s :    -0.000000
      pz      :     0.000000  p :    -0.000000
      px      :    -0.000000
      py      :    -0.000000
      dz2     :     0.000000  d :     0.000000
      dxz     :     0.000000
      dyz     :     0.000000
      dx2y2   :     0.000000
      dxy     :     0.000000

 82 H s       :     0.000000  s :     0.000000
      pz      :    -0.000000  p :    -0.000000
      px      :    -0.000000
      py      :     0.000000

 83 C s       :    -0.000000  s :    -0.000000
      pz      :    -0.000000  p :    -0.000000
      px      :    -0.000000
      py      :    -0.000000
      dz2     :     0.000000  d :     0.000000
      dxz     :    -0.000000
      dyz     :     0.000000
      dx2y2   :     0.000000
      dxy     :     0.000000

 84 C s       :    -0.000000  s :    -0.000000
      pz      :    -0.000000  p :    -0.000000
      px      :    -0.000000
      py      :    -0.000000
      dz2     :    -0.000000  d :    -0.000000
      dxz     :    -0.000000
      dyz     :     0.000000
      dx2y2   :     0.000000
      dxy     :    -0.000000

 85 C s       :     0.000000  s :     0.000000
      pz      :    -0.000000  p :     0.000000
      px      :     0.000000
      py      :    -0.000000
      dz2     :    -0.000000  d :    -0.000000
      dxz     :     0.000000
      dyz     :     0.000000
      dx2y2   :    -0.000000
      dxy     :    -0.000000

 86 C s       :    -0.000000  s :    -0.000000
      pz      :    -0.000000  p :     0.000000
      px      :     0.000000
      py      :     0.000000
      dz2     :    -0.000000  d :    -0.000000
      dxz     :    -0.000000
      dyz     :    -0.000000
      dx2y2   :    -0.000000
      dxy     :    -0.000000

 87 H s       :    -0.000000  s :    -0.000000
      pz      :    -0.000000  p :    -0.000000
      px      :    -0.000000
      py      :     0.000000

 88 C s       :     0.000000  s :     0.000000
      pz      :     0.000000  p :     0.000000
      px      :     0.000000
      py      :     0.000000
      dz2     :    -0.000000  d :    -0.000000
      dxz     :    -0.000000
      dyz     :    -0.000000
      dx2y2   :    -0.000000
      dxy     :    -0.000000

 89 C s       :    -0.000000  s :    -0.000000
      pz      :    -0.000000  p :     0.000000
      px      :     0.000000
      py      :     0.000000
      dz2     :    -0.000000  d :    -0.000000
      dxz     :     0.000000
      dyz     :    -0.000000
      dx2y2   :    -0.000000
      dxy     :    -0.000000

 90 C s       :    -0.000000  s :    -0.000000
      pz      :     0.000000  p :    -0.000000
      px      :     0.000000
      py      :    -0.000000
      dz2     :    -0.000000  d :     0.000000
      dxz     :     0.000000
      dyz     :     0.000000
      dx2y2   :    -0.000000
      dxy     :     0.000000

 91 H s       :     0.000000  s :     0.000000
      pz      :     0.000000  p :     0.000000
      px      :    -0.000000
      py      :     0.000000

 92 C s       :     0.000000  s :     0.000000
      pz      :    -0.000000  p :     0.000000
      px      :     0.000000
      py      :     0.000000
      dz2     :     0.000000  d :    -0.000000
      dxz     :     0.000000
      dyz     :    -0.000000
      dx2y2   :    -0.000000
      dxy     :    -0.000000

 93 H s       :     0.000000  s :     0.000000
      pz      :    -0.000000  p :     0.000000
      px      :     0.000000
      py      :     0.000000

 94 C s       :     0.000000  s :     0.000000
      pz      :    -0.000000  p :    -0.000000
      px      :    -0.000000
      py      :    -0.000000
      dz2     :    -0.000000  d :     0.000000
      dxz     :     0.000000
      dyz     :     0.000000
      dx2y2   :     0.000000
      dxy     :     0.000000

 95 H s       :     0.000000  s :     0.000000
      pz      :     0.000000  p :    -0.000000
      px      :    -0.000000
      py      :    -0.000000

 96 H s       :    -0.000000  s :    -0.000000
      pz      :     0.000000  p :     0.000000
      px      :     0.000000
      py      :     0.000000

 97 H s       :    -0.000000  s :    -0.000000
      pz      :     0.000000  p :     0.000000
      px      :    -0.000000
      py      :     0.000000

 98 H s       :     0.000000  s :     0.000000
      pz      :    -0.000000  p :    -0.000000
      px      :    -0.000000
      py      :    -0.000000

 99 C s       :     0.000000  s :     0.000000
      pz      :    -0.000000  p :    -0.000000
      px      :    -0.000000
      py      :    -0.000000
      dz2     :     0.000000  d :     0.000000
      dxz     :     0.000000
      dyz     :     0.000000
      dx2y2   :     0.000000
      dxy     :     0.000000

100 C s       :     0.000000  s :     0.000000
      pz      :     0.000000  p :     0.000000
      px      :     0.000000
      py      :     0.000000
      dz2     :    -0.000000  d :    -0.000000
      dxz     :    -0.000000
      dyz     :    -0.000000
      dx2y2   :    -0.000000
      dxy     :    -0.000000



                      *****************************
                      * MAYER POPULATION ANALYSIS *
                      *****************************

  NA   - Mulliken gross atomic population
  ZA   - Total nuclear charge
  QA   - Mulliken gross atomic charge
  VA   - Mayer's total valence
  BVA  - Mayer's bonded valence
  FA   - Mayer's free valence

  ATOM       NA         ZA         QA         VA         BVA        FA
  0 Cl    16.9906    17.0000     0.0094     1.1456     1.1456    -0.0000
  1 Cl    17.0031    17.0000    -0.0031     1.1638     1.1638    -0.0000
  2 Cl    16.9859    17.0000     0.0141     1.1452     1.1452     0.0000
  3 Cl    16.9705    17.0000     0.0295     1.1496     1.1496    -0.0000
  4 Cl    16.9895    17.0000     0.0105     1.1415     1.1415    -0.0000
  5 Cl    16.9890    17.0000     0.0110     1.1350     1.1350    -0.0000
  6 Cl    16.9802    17.0000     0.0198     1.1362     1.1362    -0.0000
  7 Cl    16.9863    17.0000     0.0137     1.1300     1.1300    -0.0000
  8 Cl    16.9861    17.0000     0.0139     1.1310     1.1310     0.0000
  9 Cl    16.9780    17.0000     0.0220     1.1508     1.1508    -0.0000
 10 Cl    16.9798    17.0000     0.0202     1.1501     1.1501    -0.0000
 11 Cl    16.9809    17.0000     0.0191     1.1320     1.1320    -0.0000
 12 Cl    16.9987    17.0000     0.0013     1.0999     1.0999     0.0000
 13 Cl    16.9940    17.0000     0.0060     1.1062     1.1062    -0.0000
 14 N      7.3603     7.0000    -0.3603     3.0330     3.0330     0.0000
 15 N      7.3554     7.0000    -0.3554     3.0269     3.0269    -0.0000
 16 N      7.4397     7.0000    -0.4397     2.9935     2.9935     0.0000
 17 C      5.9785     6.0000     0.0215     3.9563     3.9563     0.0000
 18 C      5.8421     6.0000     0.1579     3.9730     3.9730    -0.0000
 19 C      5.8444     6.0000     0.1556     3.9701     3.9701    -0.0000
 20 C      5.8819     6.0000     0.1181     3.9332     3.9332    -0.0000
 21 C      5.9387     6.0000     0.0613     3.9199     3.9199     0.0000
 22 C      6.1221     6.0000    -0.1221     3.8529     3.8529    -0.0000
 23 H      0.8631     1.0000     0.1369     0.9793     0.9793    -0.0000
 24 C      5.9305     6.0000     0.0695     3.9225     3.9225    -0.0000
 25 C      6.1347     6.0000    -0.1347     3.8791     3.8791     0.0000
 26 H      0.8733     1.0000     0.1267     0.9703     0.9703     0.0000
 27 C      5.9522     6.0000     0.0478     3.9756     3.9756    -0.0000
 28 C      5.9233     6.0000     0.0767     3.9527     3.9527    -0.0000
 29 C      5.9491     6.0000     0.0509     3.9561     3.9561    -0.0000
 30 C      5.8760     6.0000     0.1240     3.9279     3.9279    -0.0000
 31 C      6.1119     6.0000    -0.1119     3.9230     3.9230    -0.0000
 32 H      0.9088     1.0000     0.0912     0.9624     0.9624     0.0000
 33 C      5.8998     6.0000     0.1002     3.9352     3.9352    -0.0000
 34 C      6.1512     6.0000    -0.1512     3.9564     3.9564    -0.0000
 35 H      0.9141     1.0000     0.0859     0.9631     0.9631     0.0000
 36 C      6.0983     6.0000    -0.0983     3.8809     3.8809     0.0000
 37 H      0.8700     1.0000     0.1300     0.9620     0.9620     0.0000
 38 C      6.0823     6.0000    -0.0823     3.9173     3.9173    -0.0000
 39 H      0.8727     1.0000     0.1273     0.9705     0.9705     0.0000
 40 C      6.1336     6.0000    -0.1336     3.9611     3.9611    -0.0000
 41 C      5.8483     6.0000     0.1517     3.9370     3.9370    -0.0000
 42 C      6.1522     6.0000    -0.1522     3.9407     3.9407     0.0000
 43 H      0.9114     1.0000     0.0886     0.9628     0.9628    -0.0000
 44 C      6.0042     6.0000    -0.0042     3.9463     3.9463     0.0000
 45 C      5.8727     6.0000     0.1273     3.9523     3.9523    -0.0000
 46 C      6.0853     6.0000    -0.0853     3.9140     3.9140     0.0000
 47 H      0.8813     1.0000     0.1187     0.9673     0.9673     0.0000
 48 C      5.8496     6.0000     0.1504     3.9966     3.9966    -0.0000
 49 C      6.1026     6.0000    -0.1026     3.8963     3.8963    -0.0000
 50 H      0.8947     1.0000     0.1053     0.9628     0.9628     0.0000
 51 C      5.9251     6.0000     0.0749     3.9554     3.9554    -0.0000
 52 C      6.1480     6.0000    -0.1480     3.9512     3.9512    -0.0000
 53 C      5.8541     6.0000     0.1459     3.9879     3.9879     0.0000
 54 C      6.1437     6.0000    -0.1437     3.9542     3.9542    -0.0000
 55 C      5.9213     6.0000     0.0787     3.8918     3.8918     0.0000
 56 C      6.0472     6.0000    -0.0472     3.8930     3.8930    -0.0000
 57 H      0.8570     1.0000     0.1430     0.9633     0.9633     0.0000
 58 C      6.0758     6.0000    -0.0758     3.9358     3.9358    -0.0000
 59 H      0.8839     1.0000     0.1161     0.9625     0.9625    -0.0000
 60 C      6.0522     6.0000    -0.0522     3.8955     3.8955    -0.0000
 61 H      0.8570     1.0000     0.1430     0.9594     0.9594     0.0000
 62 C      6.0976     6.0000    -0.0976     3.9793     3.9793     0.0000
 63 C      6.1351     6.0000    -0.1351     3.9517     3.9517    -0.0000
 64 C      6.1269     6.0000    -0.1269     3.9656     3.9656    -0.0000
 65 C      6.2350     6.0000    -0.2350     3.8832     3.8832     0.0000
 66 H      0.8961     1.0000     0.1039     0.9560     0.9560     0.0000
 67 H      0.8748     1.0000     0.1252     0.9475     0.9475     0.0000
 68 C      6.2372     6.0000    -0.2372     3.8848     3.8848     0.0000
 69 H      0.8952     1.0000     0.1048     0.9568     0.9568     0.0000
 70 H      0.8776     1.0000     0.1224     0.9479     0.9479     0.0000
 71 C      6.0451     6.0000    -0.0451     3.8867     3.8867    -0.0000
 72 H      0.8483     1.0000     0.1517     0.9576     0.9576    -0.0000
 73 C      5.9165     6.0000     0.0835     3.9464     3.9464     0.0000
 74 C      5.9237     6.0000     0.0763     3.8870     3.8870    -0.0000
 75 C      6.1236     6.0000    -0.1236     3.9720     3.9720     0.0000
 76 C      6.0437     6.0000    -0.0437     3.8909     3.8909    -0.0000
 77 H      0.8534     1.0000     0.1466     0.9625     0.9625    -0.0000
 78 C      6.1292     6.0000    -0.1292     3.9616     3.9616     0.0000
 79 C      6.2373     6.0000    -0.2373     3.8847     3.8847    -0.0000
 80 H      0.8954     1.0000     0.1046     0.9563     0.9563     0.0000
 81 C      6.0495     6.0000    -0.0495     3.8891     3.8891    -0.0000
 82 H      0.8567     1.0000     0.1433     0.9589     0.9589     0.0000
 83 C      6.0851     6.0000    -0.0851     3.9852     3.9852    -0.0000
 84 C      6.1118     6.0000    -0.1118     3.9711     3.9711     0.0000
 85 C      6.0973     6.0000    -0.0973     3.9768     3.9768     0.0000
 86 C      6.0465     6.0000    -0.0465     3.8923     3.8923     0.0000
 87 H      0.8553     1.0000     0.1447     0.9585     0.9585     0.0000
 88 C      6.1185     6.0000    -0.1185     3.9643     3.9643     0.0000
 89 C      6.2349     6.0000    -0.2349     3.8847     3.8847     0.0000
 90 C      6.0510     6.0000    -0.0510     3.8873     3.8873     0.0000
 91 H      0.8568     1.0000     0.1432     0.9588     0.9588     0.0000
 92 C      6.0481     6.0000    -0.0481     3.8926     3.8926     0.0000
 93 H      0.8551     1.0000     0.1449     0.9586     0.9586    -0.0000
 94 C      6.0953     6.0000    -0.0953     3.9800     3.9800     0.0000
 95 H      0.9125     1.0000     0.0875     0.9631     0.9631    -0.0000
 96 H      0.8972     1.0000     0.1028     0.9563     0.9563     0.0000
 97 H      0.8751     1.0000     0.1249     0.9472     0.9472     0.0000
 98 H      0.8769     1.0000     0.1231     0.9474     0.9474     0.0000
 99 C      6.0851     6.0000    -0.0851     3.9113     3.9113     0.0000
100 C      6.1113     6.0000    -0.1113     3.9031     3.9031    -0.0000

  Mayer bond orders larger than 0.100000
B(  0-Cl, 17-C ) :   1.0599 B(  1-Cl, 44-C ) :   1.0394 B(  2-Cl, 40-C ) :   1.0479 
B(  3-Cl, 64-C ) :   1.0660 B(  4-Cl, 54-C ) :   1.0430 B(  5-Cl, 63-C ) :   1.0479 
B(  6-Cl, 75-C ) :   1.0561 B(  7-Cl, 78-C ) :   1.0527 B(  8-Cl, 62-C ) :   1.0388 
B(  9-Cl, 88-C ) :   1.0614 B( 10-Cl, 84-C ) :   1.0610 B( 11-Cl, 83-C ) :   1.0443 
B( 12-Cl, 85-C ) :   1.0311 B( 13-Cl, 94-C ) :   1.0350 B( 14-N , 17-C ) :   1.5120 
B( 14-N , 19-C ) :   1.3529 B( 15-N , 18-C ) :   1.3607 B( 15-N , 44-C ) :   1.4928 
B( 16-N , 48-C ) :   1.4160 B( 16-N , 53-C ) :   1.4102 B( 17-C , 20-C ) :   1.1953 
B( 18-C , 24-C ) :   1.0325 B( 18-C , 49-C ) :   1.3399 B( 19-C , 21-C ) :   1.0273 
B( 19-C , 36-C ) :   1.3436 B( 20-C , 38-C ) :   1.3008 B( 20-C , 99-C ) :   1.2166 
B( 21-C , 25-C ) :   1.3765 B( 21-C , 46-C ) :   1.3864 B( 22-C , 23-H ) :   0.9140 
B( 22-C , 24-C ) :   1.3616 B( 22-C , 29-C ) :   1.3779 B( 24-C , 31-C ) :   1.3957 
B( 25-C , 26-H ) :   0.9193 B( 25-C , 27-C ) :   1.3949 B( 27-C , 28-C ) :   1.4067 
B( 27-C , 53-C ) :   1.0263 B( 28-C , 42-C ) :   1.4150 B( 28-C , 68-C ) :   0.9928 
B( 29-C , 48-C ) :   1.0319 B( 29-C , 51-C ) :   1.4069 B( 30-C , 75-C ) :   1.3281 
B( 30-C , 84-C ) :   1.3170 B( 30-C , 99-C ) :   1.0856 B( 31-C , 32-H ) :   0.9391 
B( 31-C , 34-C ) :   1.4309 B( 33-C , 40-C ) :   1.3229 B( 33-C , 64-C ) :   1.3007 
B( 33-C , 99-C ) :   1.1092 B( 34-C , 35-H ) :   0.9411 B( 34-C , 51-C ) :   1.4196 
B( 36-C , 37-H ) :   0.9305 B( 36-C , 38-C ) :   1.4757 B( 38-C , 39-H ) :   0.9246 
B( 40-C , 76-C ) :   1.4157 B( 41-C , 54-C ) :   1.2977 B( 41-C , 63-C ) :   1.2905 
B( 41-C ,100-C ) :   1.1480 B( 42-C , 43-H ) :   0.9416 B( 42-C , 46-C ) :   1.4261 
B( 44-C , 45-C ) :   1.2048 B( 45-C , 58-C ) :   1.3208 B( 45-C ,100-C ) :   1.2000 
B( 46-C , 47-H ) :   0.9325 B( 48-C , 74-C ) :   1.3495 B( 49-C , 50-H ) :   0.9346 
B( 49-C , 58-C ) :   1.4891 B( 51-C , 79-C ) :   0.9916 B( 52-C , 55-C ) :   1.4190 
B( 52-C , 74-C ) :   1.4168 B( 52-C , 95-H ) :   0.9385 B( 53-C , 55-C ) :   1.3510 
B( 54-C , 56-C ) :   1.4267 B( 55-C , 65-C ) :   0.9861 B( 56-C , 57-H ) :   0.9306 
B( 56-C , 62-C ) :   1.3901 B( 58-C , 59-H ) :   0.9324 B( 60-C , 61-H ) :   0.9336 
B( 60-C , 62-C ) :   1.3843 B( 60-C , 63-C ) :   1.4348 B( 64-C , 71-C ) :   1.4274 
B( 65-C , 66-H ) :   0.9506 B( 65-C , 67-H ) :   0.9408 B( 65-C , 68-C ) :   0.9855 
B( 68-C , 69-H ) :   0.9507 B( 68-C , 70-H ) :   0.9414 B( 71-C , 72-H ) :   0.9319 
B( 71-C , 83-C ) :   1.3826 B( 73-C , 78-C ) :   1.3475 B( 73-C , 88-C ) :   1.3296 
B( 73-C ,100-C ) :   1.0645 B( 74-C , 89-C ) :   0.9874 B( 75-C , 92-C ) :   1.4182 
B( 76-C , 77-H ) :   0.9299 B( 76-C , 83-C ) :   1.3989 B( 78-C , 81-C ) :   1.4057 
B( 79-C , 80-H ) :   0.9501 B( 79-C , 89-C ) :   0.9861 B( 79-C , 98-H ) :   0.9411 
B( 81-C , 82-H ) :   0.9338 B( 81-C , 85-C ) :   1.4088 B( 84-C , 86-C ) :   1.4266 
B( 85-C , 90-C ) :   1.3966 B( 86-C , 87-H ) :   0.9332 B( 86-C , 94-C ) :   1.3937 
B( 88-C , 90-C ) :   1.4192 B( 89-C , 96-H ) :   0.9509 B( 89-C , 97-H ) :   0.9418 
B( 90-C , 91-H ) :   0.9341 B( 92-C , 93-H ) :   0.9332 B( 92-C , 94-C ) :   1.4012 
B( 99-C ,100-C ) :   0.1464 

-------------------------
FLIP-SPIN BROKEN SYMMETRY
-------------------------

 Flipping spin on atom C  99
Before flipping the spin we have:
Multiplicity                     ... 1
Number of unpaired electrons     ... 0
Number of spin-up electrons      ... 314
Number of spin-down electrons    ... 314
HOMO spin-up                     ... 313
HOMO spin-down                   ... 313
After flipping the spin we have:
Multiplicity                     ... 1
Number of unpaired electrons     ... 0
Number of spin-up electrons      ... 314
Number of spin-down electrons    ... 314
HOMO spin-up                     ... 313
HOMO spin-down                   ... 313

                      ******************************************
                               F L I P    S P I N
                           -----------------------------
                           Broken Symmetry SCF calculation
                                   MS(BS) =   0.0
                      ******************************************
 
The new occupation numbers
   0:    1.000    1.000
   1:    1.000    1.000
   2:    1.000    1.000
   3:    1.000    1.000
   4:    1.000    1.000
   5:    1.000    1.000
   6:    1.000    1.000
   7:    1.000    1.000
   8:    1.000    1.000
   9:    1.000    1.000
  10:    1.000    1.000
  11:    1.000    1.000
  12:    1.000    1.000
  13:    1.000    1.000
  14:    1.000    1.000
  15:    1.000    1.000
  16:    1.000    1.000
  17:    1.000    1.000
  18:    1.000    1.000
  19:    1.000    1.000
  20:    1.000    1.000
  21:    1.000    1.000
  22:    1.000    1.000
  23:    1.000    1.000
  24:    1.000    1.000
  25:    1.000    1.000
  26:    1.000    1.000
  27:    1.000    1.000
  28:    1.000    1.000
  29:    1.000    1.000
  30:    1.000    1.000
  31:    1.000    1.000
  32:    1.000    1.000
  33:    1.000    1.000
  34:    1.000    1.000
  35:    1.000    1.000
  36:    1.000    1.000
  37:    1.000    1.000
  38:    1.000    1.000
  39:    1.000    1.000
  40:    1.000    1.000
  41:    1.000    1.000
  42:    1.000    1.000
  43:    1.000    1.000
  44:    1.000    1.000
  45:    1.000    1.000
  46:    1.000    1.000
  47:    1.000    1.000
  48:    1.000    1.000
  49:    1.000    1.000
  50:    1.000    1.000
  51:    1.000    1.000
  52:    1.000    1.000
  53:    1.000    1.000
  54:    1.000    1.000
  55:    1.000    1.000
  56:    1.000    1.000
  57:    1.000    1.000
  58:    1.000    1.000
  59:    1.000    1.000
  60:    1.000    1.000
  61:    1.000    1.000
  62:    1.000    1.000
  63:    1.000    1.000
  64:    1.000    1.000
  65:    1.000    1.000
  66:    1.000    1.000
  67:    1.000    1.000
  68:    1.000    1.000
  69:    1.000    1.000
  70:    1.000    1.000
  71:    1.000    1.000
  72:    1.000    1.000
  73:    1.000    1.000
  74:    1.000    1.000
  75:    1.000    1.000
  76:    1.000    1.000
  77:    1.000    1.000
  78:    1.000    1.000
  79:    1.000    1.000
  80:    1.000    1.000
  81:    1.000    1.000
  82:    1.000    1.000
  83:    1.000    1.000
  84:    1.000    1.000
  85:    1.000    1.000
  86:    1.000    1.000
  87:    1.000    1.000
  88:    1.000    1.000
  89:    1.000    1.000
  90:    1.000    1.000
  91:    1.000    1.000
  92:    1.000    1.000
  93:    1.000    1.000
  94:    1.000    1.000
  95:    1.000    1.000
  96:    1.000    1.000
  97:    1.000    1.000
  98:    1.000    1.000
  99:    1.000    1.000
 100:    1.000    1.000
 101:    1.000    1.000
 102:    1.000    1.000
 103:    1.000    1.000
 104:    1.000    1.000
 105:    1.000    1.000
 106:    1.000    1.000
 107:    1.000    1.000
 108:    1.000    1.000
 109:    1.000    1.000
 110:    1.000    1.000
 111:    1.000    1.000
 112:    1.000    1.000
 113:    1.000    1.000
 114:    1.000    1.000
 115:    1.000    1.000
 116:    1.000    1.000
 117:    1.000    1.000
 118:    1.000    1.000
 119:    1.000    1.000
 120:    1.000    1.000
 121:    1.000    1.000
 122:    1.000    1.000
 123:    1.000    1.000
 124:    1.000    1.000
 125:    1.000    1.000
 126:    1.000    1.000
 127:    1.000    1.000
 128:    1.000    1.000
 129:    1.000    1.000
 130:    1.000    1.000
 131:    1.000    1.000
 132:    1.000    1.000
 133:    1.000    1.000
 134:    1.000    1.000
 135:    1.000    1.000
 136:    1.000    1.000
 137:    1.000    1.000
 138:    1.000    1.000
 139:    1.000    1.000
 140:    1.000    1.000
 141:    1.000    1.000
 142:    1.000    1.000
 143:    1.000    1.000
 144:    1.000    1.000
 145:    1.000    1.000
 146:    1.000    1.000
 147:    1.000    1.000
 148:    1.000    1.000
 149:    1.000    1.000
 150:    1.000    1.000
 151:    1.000    1.000
 152:    1.000    1.000
 153:    1.000    1.000
 154:    1.000    1.000
 155:    1.000    1.000
 156:    1.000    1.000
 157:    1.000    1.000
 158:    1.000    1.000
 159:    1.000    1.000
 160:    1.000    1.000
 161:    1.000    1.000
 162:    1.000    1.000
 163:    1.000    1.000
 164:    1.000    1.000
 165:    1.000    1.000
 166:    1.000    1.000
 167:    1.000    1.000
 168:    1.000    1.000
 169:    1.000    1.000
 170:    1.000    1.000
 171:    1.000    1.000
 172:    1.000    1.000
 173:    1.000    1.000
 174:    1.000    1.000
 175:    1.000    1.000
 176:    1.000    1.000
 177:    1.000    1.000
 178:    1.000    1.000
 179:    1.000    1.000
 180:    1.000    1.000
 181:    1.000    1.000
 182:    1.000    1.000
 183:    1.000    1.000
 184:    1.000    1.000
 185:    1.000    1.000
 186:    1.000    1.000
 187:    1.000    1.000
 188:    1.000    1.000
 189:    1.000    1.000
 190:    1.000    1.000
 191:    1.000    1.000
 192:    1.000    1.000
 193:    1.000    1.000
 194:    1.000    1.000
 195:    1.000    1.000
 196:    1.000    1.000
 197:    1.000    1.000
 198:    1.000    1.000
 199:    1.000    1.000
 200:    1.000    1.000
 201:    1.000    1.000
 202:    1.000    1.000
 203:    1.000    1.000
 204:    1.000    1.000
 205:    1.000    1.000
 206:    1.000    1.000
 207:    1.000    1.000
 208:    1.000    1.000
 209:    1.000    1.000
 210:    1.000    1.000
 211:    1.000    1.000
 212:    1.000    1.000
 213:    1.000    1.000
 214:    1.000    1.000
 215:    1.000    1.000
 216:    1.000    1.000
 217:    1.000    1.000
 218:    1.000    1.000
 219:    1.000    1.000
 220:    1.000    1.000
 221:    1.000    1.000
 222:    1.000    1.000
 223:    1.000    1.000
 224:    1.000    1.000
 225:    1.000    1.000
 226:    1.000    1.000
 227:    1.000    1.000
 228:    1.000    1.000
 229:    1.000    1.000
 230:    1.000    1.000
 231:    1.000    1.000
 232:    1.000    1.000
 233:    1.000    1.000
 234:    1.000    1.000
 235:    1.000    1.000
 236:    1.000    1.000
 237:    1.000    1.000
 238:    1.000    1.000
 239:    1.000    1.000
 240:    1.000    1.000
 241:    1.000    1.000
 242:    1.000    1.000
 243:    1.000    1.000
 244:    1.000    1.000
 245:    1.000    1.000
 246:    1.000    1.000
 247:    1.000    1.000
 248:    1.000    1.000
 249:    1.000    1.000
 250:    1.000    1.000
 251:    1.000    1.000
 252:    1.000    1.000
 253:    1.000    1.000
 254:    1.000    1.000
 255:    1.000    1.000
 256:    1.000    1.000
 257:    1.000    1.000
 258:    1.000    1.000
 259:    1.000    1.000
 260:    1.000    1.000
 261:    1.000    1.000
 262:    1.000    1.000
 263:    1.000    1.000
 264:    1.000    1.000
 265:    1.000    1.000
 266:    1.000    1.000
 267:    1.000    1.000
 268:    1.000    1.000
 269:    1.000    1.000
 270:    1.000    1.000
 271:    1.000    1.000
 272:    1.000    1.000
 273:    1.000    1.000
 274:    1.000    1.000
 275:    1.000    1.000
 276:    1.000    1.000
 277:    1.000    1.000
 278:    1.000    1.000
 279:    1.000    1.000
 280:    1.000    1.000
 281:    1.000    1.000
 282:    1.000    1.000
 283:    1.000    1.000
 284:    1.000    1.000
 285:    1.000    1.000
 286:    1.000    1.000
 287:    1.000    1.000
 288:    1.000    1.000
 289:    1.000    1.000
 290:    1.000    1.000
 291:    1.000    1.000
 292:    1.000    1.000
 293:    1.000    1.000
 294:    1.000    1.000
 295:    1.000    1.000
 296:    1.000    1.000
 297:    1.000    1.000
 298:    1.000    1.000
 299:    1.000    1.000
 300:    1.000    1.000
 301:    1.000    1.000
 302:    1.000    1.000
 303:    1.000    1.000
 304:    1.000    1.000
 305:    1.000    1.000
 306:    1.000    1.000
 307:    1.000    1.000
 308:    1.000    1.000
 309:    1.000    1.000
 310:    1.000    1.000
 311:    1.000    1.000
 312:    1.000    1.000
 313:    1.000    1.000
 314:    0.000    0.000
 315:    0.000    0.000
 316:    0.000    0.000
 317:    0.000    0.000
 318:    0.000    0.000
 319:    0.000    0.000
 320:    0.000    0.000
 321:    0.000    0.000
 322:    0.000    0.000
 323:    0.000    0.000
 324:    0.000    0.000

----------------------------------------D-I-I-S--------------------------------------------
Iteration    Energy (Eh)           Delta-E    RMSDP     MaxDP     DIISErr   Damp  Time(sec)
-------------------------------------------------------------------------------------------
               ***  Starting incremental Fock matrix formation  ***
                              *** Initializing SOSCF ***
---------------------------------------S-O-S-C-F--------------------------------------
Iteration    Energy (Eh)           Delta-E    RMSDP     MaxDP     MaxGrad    Time(sec)
--------------------------------------------------------------------------------------
    1    -8793.8788793721287220     0.00e+00  7.24e-07  9.54e-06  6.76e-07    14.1
               *** Restarting incremental Fock matrix formation ***
    2    -8793.8788793702733528     1.86e-09  8.83e-07  1.32e-05  5.69e-06    13.4
    3    -8793.8788793635758338     6.70e-09  5.93e-07  1.48e-05  1.77e-05     3.5
                 **** Energy Check signals convergence ****

               *****************************************************
               *                     SUCCESS                       *
               *           SCF CONVERGED AFTER   3 CYCLES          *
               *****************************************************

Recomputing exchange energy using gridx3       ... done (   24.096 sec)
Old exchange energy                            :   -184.702945966 Eh
New exchange energy                            :   -184.703079271 Eh
Exchange energy change after final integration :     -0.000133305 Eh
Total energy after final integration           :  -8793.879012660 Eh
             **** ENERGY FILE WAS UPDATED (THDBA-PyBTM.en.tmp) ****

----------------
TOTAL SCF ENERGY
----------------

Total Energy       :      -8793.87901265969958 Eh         -239293.61339 eV

Components:
Nuclear Repulsion  :      16787.24545452606981 Eh          456804.17229 eV
Electronic Energy  :     -25581.12433388086356 Eh         -696097.78205 eV
One Electron Energy:     -45581.32483675221010 Eh        -1240330.90601 eV
Two Electron Energy:      20000.20050287134654 Eh          544233.12396 eV

Virial components:
Potential Energy   :     -17560.66894336912810 Eh         -477850.09538 eV
Kinetic Energy     :       8766.78993070943034 Eh          238556.48199 eV
Virial Ratio       :          2.00308996590136

DFT components:
N(Alpha)           :      314.000033488915 electrons
N(Beta)            :      314.000033488915 electrons
N(Total)           :      628.000066977830 electrons
E(XC)              :     -550.333762572079 Eh       

---------------
SCF CONVERGENCE
---------------

  Last Energy change         ...   -6.6975e-09  Tolerance :   1.0000e-08
  Last MAX-Density change    ...    1.4784e-05  Tolerance :   1.0000e-07
  Last RMS-Density change    ...    5.9312e-07  Tolerance :   5.0000e-09
  Last DIIS Error            ...    4.8199e-06  Tolerance :   5.0000e-07
  Last Orbital Gradient      ...    1.7717e-05  Tolerance :   1.0000e-05
  Last Orbital Rotation      ...    6.6903e-05  Tolerance :   1.0000e-05


----------------------
UHF SPIN CONTAMINATION
----------------------

Warning: in a DFT calculation there is little theoretical justification to 
         calculate <S**2> as in Hartree-Fock theory. We will do it anyways
         but you should keep in mind that the values have only limited relevance

Expectation value of <S**2>     :    -0.000000
Ideal value S*(S+1) for S=0.0   :     0.000000
Deviation                       :    -0.000000


                    ********************************
                    * MULLIKEN POPULATION ANALYSIS *
                    ********************************

--------------------------------------------
MULLIKEN ATOMIC CHARGES AND SPIN POPULATIONS
--------------------------------------------
   0 Cl:    0.009446   -0.000000
   1 Cl:   -0.003112    0.000000
   2 Cl:    0.014122   -0.000000
   3 Cl:    0.029480   -0.000000
   4 Cl:    0.010527    0.000000
   5 Cl:    0.011008    0.000000
   6 Cl:    0.019773   -0.000000
   7 Cl:    0.013732    0.000000
   8 Cl:    0.013916    0.000000
   9 Cl:    0.022003    0.000000
  10 Cl:    0.020196   -0.000000
  11 Cl:    0.019101   -0.000000
  12 Cl:    0.001318    0.000000
  13 Cl:    0.006047   -0.000000
  14 N :   -0.360262    0.000000
  15 N :   -0.355374   -0.000000
  16 N :   -0.439727   -0.000000
  17 C :    0.021500   -0.000000
  18 C :    0.157864    0.000000
  19 C :    0.155641   -0.000000
  20 C :    0.118153    0.000000
  21 C :    0.061290    0.000000
  22 C :   -0.122138    0.000000
  23 H :    0.136951    0.000000
  24 C :    0.069468   -0.000000
  25 C :   -0.134734   -0.000000
  26 H :    0.126743    0.000000
  27 C :    0.047753   -0.000000
  28 C :    0.076699   -0.000000
  29 C :    0.050873   -0.000000
  30 C :    0.124047    0.000000
  31 C :   -0.111858    0.000000
  32 H :    0.091217    0.000000
  33 C :    0.100198    0.000000
  34 C :   -0.151226   -0.000000
  35 H :    0.085882   -0.000000
  36 C :   -0.098337    0.000000
  37 H :    0.129996   -0.000000
  38 C :   -0.082319   -0.000000
  39 H :    0.127266    0.000000
  40 C :   -0.133652   -0.000000
  41 C :    0.151740   -0.000000
  42 C :   -0.152176   -0.000000
  43 H :    0.088645    0.000000
  44 C :   -0.004237    0.000000
  45 C :    0.127271   -0.000000
  46 C :   -0.085302   -0.000000
  47 H :    0.118693    0.000000
  48 C :    0.150427    0.000000
  49 C :   -0.102585   -0.000000
  50 H :    0.105349    0.000000
  51 C :    0.074870    0.000000
  52 C :   -0.148018    0.000000
  53 C :    0.145860   -0.000000
  54 C :   -0.143719    0.000000
  55 C :    0.078661    0.000000
  56 C :   -0.047181   -0.000000
  57 H :    0.142965    0.000000
  58 C :   -0.075802    0.000000
  59 H :    0.116061   -0.000000
  60 C :   -0.052199   -0.000000
  61 H :    0.143027    0.000000
  62 C :   -0.097658    0.000000
  63 C :   -0.135113    0.000000
  64 C :   -0.126903   -0.000000
  65 C :   -0.235044   -0.000000
  66 H :    0.103927    0.000000
  67 H :    0.125174    0.000000
  68 C :   -0.237209    0.000000
  69 H :    0.104823    0.000000
  70 H :    0.122433   -0.000000
  71 C :   -0.045089    0.000000
  72 H :    0.151688   -0.000000
  73 C :    0.083462   -0.000000
  74 C :    0.076285   -0.000000
  75 C :   -0.123591   -0.000000
  76 C :   -0.043687    0.000000
  77 H :    0.146598   -0.000000
  78 C :   -0.129172    0.000000
  79 C :   -0.237290    0.000000
  80 H :    0.104651    0.000000
  81 C :   -0.049510   -0.000000
  82 H :    0.143348    0.000000
  83 C :   -0.085134   -0.000000
  84 C :   -0.111768   -0.000000
  85 C :   -0.097313    0.000000
  86 C :   -0.046485   -0.000000
  87 H :    0.144740   -0.000000
  88 C :   -0.118519    0.000000
  89 C :   -0.234914    0.000000
  90 C :   -0.050965   -0.000000
  91 H :    0.143191    0.000000
  92 C :   -0.048152   -0.000000
  93 H :    0.144869   -0.000000
  94 C :   -0.095259   -0.000000
  95 H :    0.087505    0.000000
  96 H :    0.102766    0.000000
  97 H :    0.124860    0.000000
  98 H :    0.123053    0.000000
  99 C :   -0.085035   -0.000000
 100 C :   -0.111380    0.000000
Sum of atomic charges         :   -0.0000000
Sum of atomic spin populations:    0.0000000

-----------------------------------------------------
MULLIKEN REDUCED ORBITAL CHARGES AND SPIN POPULATIONS
-----------------------------------------------------
CHARGE
  0 Cls       :     5.926722  s :     5.926722
      pz      :     3.873104  p :    11.035818
      px      :     3.593739
      py      :     3.568976
      dz2     :     0.004052  d :     0.028013
      dxz     :     0.003589
      dyz     :     0.004076
      dx2y2   :     0.002879
      dxy     :     0.013417

  1 Cls       :     5.922173  s :     5.922173
      pz      :     3.853828  p :    11.052364
      px      :     3.477093
      py      :     3.721443
      dz2     :     0.003835  d :     0.028575
      dxz     :     0.006307
      dyz     :     0.002818
      dx2y2   :     0.003886
      dxy     :     0.011729

  2 Cls       :     5.929667  s :     5.929667
      pz      :     3.500994  p :    11.025407
      px      :     3.585843
      py      :     3.938571
      dz2     :     0.006965  d :     0.030804
      dxz     :     0.014501
      dyz     :     0.002341
      dx2y2   :     0.004999
      dxy     :     0.001997

  3 Cls       :     5.927640  s :     5.927640
      pz      :     3.832515  p :    11.011977
      px      :     3.706241
      py      :     3.473222
      dz2     :     0.003819  d :     0.030903
      dxz     :     0.003083
      dyz     :     0.007047
      dx2y2   :     0.005231
      dxy     :     0.011723

  4 Cls       :     5.928322  s :     5.928322
      pz      :     3.586509  p :    11.030229
      px      :     3.826817
      py      :     3.616903
      dz2     :     0.005424  d :     0.030922
      dxz     :     0.005096
      dyz     :     0.011303
      dx2y2   :     0.003977
      dxy     :     0.005122

  5 Cls       :     5.928000  s :     5.928000
      pz      :     3.883137  p :    11.030385
      px      :     3.237554
      py      :     3.909694
      dz2     :     0.004304  d :     0.030606
      dxz     :     0.007580
      dyz     :     0.000628
      dx2y2   :     0.011962
      dxy     :     0.006133

  6 Cls       :     5.925719  s :     5.925719
      pz      :     3.221904  p :    11.023967
      px      :     3.897584
      py      :     3.904478
      dz2     :     0.015665  d :     0.030541
      dxz     :     0.006353
      dyz     :     0.007004
      dx2y2   :     0.000764
      dxy     :     0.000754

  7 Cls       :     5.926224  s :     5.926224
      pz      :     3.299249  p :    11.029618
      px      :     3.930610
      py      :     3.799758
      dz2     :     0.011727  d :     0.030426
      dxz     :     0.005098
      dyz     :     0.010901
      dx2y2   :     0.001260
      dxy     :     0.001439

  8 Cls       :     5.926574  s :     5.926574
      pz      :     3.701078  p :    11.028681
      px      :     3.597241
      py      :     3.730362
      dz2     :     0.003776  d :     0.030830
      dxz     :     0.009379
      dyz     :     0.005416
      dx2y2   :     0.003466
      dxy     :     0.008793

  9 Cls       :     5.927134  s :     5.927134
      pz      :     3.326371  p :    11.020070
      px      :     3.921425
      py      :     3.772274
      dz2     :     0.010391  d :     0.030793
      dxz     :     0.005157
      dyz     :     0.011868
      dx2y2   :     0.001571
      dxy     :     0.001806

 10 Cls       :     5.927094  s :     5.927094
      pz      :     3.424777  p :    11.021930
      px      :     3.685254
      py      :     3.911899
      dz2     :     0.006958  d :     0.030780
      dxz     :     0.013828
      dyz     :     0.004613
      dx2y2   :     0.002939
      dxy     :     0.002442

 11 Cls       :     5.925805  s :     5.925805
      pz      :     3.738335  p :    11.024734
      px      :     3.929400
      py      :     3.356999
      dz2     :     0.003308  d :     0.030360
      dxz     :     0.001305
      dyz     :     0.012458
      dx2y2   :     0.008935
      dxy     :     0.004355

 12 Cls       :     5.926005  s :     5.926005
      pz      :     3.951117  p :    11.042664
      px      :     3.918967
      py      :     3.172580
      dz2     :     0.005159  d :     0.030013
      dxz     :     0.000133
      dyz     :     0.003749
      dx2y2   :     0.013941
      dxy     :     0.007033

 13 Cls       :     5.925758  s :     5.925758
      pz      :     3.929398  p :    11.038257
      px      :     3.292319
      py      :     3.816540
      dz2     :     0.004671  d :     0.029938
      dxz     :     0.004330
      dyz     :     0.000896
      dx2y2   :     0.009823
      dxy     :     0.010217

 14 N s       :     3.649223  s :     3.649223
      pz      :     1.134806  p :     3.672619
      px      :     0.997684
      py      :     1.540129
      dz2     :     0.005002  d :     0.038420
      dxz     :     0.006528
      dyz     :     0.006726
      dx2y2   :     0.006810
      dxy     :     0.013354

 15 N s       :     3.650943  s :     3.650943
      pz      :     1.211396  p :     3.665847
      px      :     0.976798
      py      :     1.477653
      dz2     :     0.004991  d :     0.038584
      dxz     :     0.008557
      dyz     :     0.005551
      dx2y2   :     0.006134
      dxy     :     0.013350

 16 N s       :     3.685395  s :     3.685395
      pz      :     1.150698  p :     3.716497
      px      :     1.376300
      py      :     1.189500
      dz2     :     0.005006  d :     0.037834
      dxz     :     0.006647
      dyz     :     0.006394
      dx2y2   :     0.012507
      dxy     :     0.007281

 17 C s       :     3.130998  s :     3.130998
      pz      :     0.959295  p :     2.777554
      px      :     0.885367
      py      :     0.932892
      dz2     :     0.005842  d :     0.069947
      dxz     :     0.010653
      dyz     :     0.009371
      dx2y2   :     0.019400
      dxy     :     0.024681

 18 C s       :     3.085428  s :     3.085428
      pz      :     0.913168  p :     2.696740
      px      :     0.855786
      py      :     0.927785
      dz2     :     0.004996  d :     0.059969
      dxz     :     0.009527
      dyz     :     0.007638
      dx2y2   :     0.018909
      dxy     :     0.018899

 19 C s       :     3.092664  s :     3.092664
      pz      :     0.907967  p :     2.691338
      px      :     0.880165
      py      :     0.903206
      dz2     :     0.004462  d :     0.060358
      dxz     :     0.008403
      dyz     :     0.008346
      dx2y2   :     0.019650
      dxy     :     0.019497

 20 C s       :     3.132210  s :     3.132210
      pz      :     0.995443  p :     2.709056
      px      :     0.901068
      py      :     0.812545
      dz2     :     0.004665  d :     0.040582
      dxz     :     0.006679
      dyz     :     0.005675
      dx2y2   :     0.012039
      dxy     :     0.011523

 21 C s       :     3.140434  s :     3.140434
      pz      :     0.980258  p :     2.758684
      px      :     0.893504
      py      :     0.884922
      dz2     :     0.004467  d :     0.039591
      dxz     :     0.006545
      dyz     :     0.005437
      dx2y2   :     0.011203
      dxy     :     0.011940

 22 C s       :     3.198884  s :     3.198884
      pz      :     0.933979  p :     2.888682
      px      :     1.007939
      py      :     0.946764
      dz2     :     0.002842  d :     0.034571
      dxz     :     0.003617
      dyz     :     0.005369
      dx2y2   :     0.011016
      dxy     :     0.011727

 23 H s       :     0.850520  s :     0.850520
      pz      :     0.002399  p :     0.012529
      px      :     0.006662
      py      :     0.003469

 24 C s       :     3.142684  s :     3.142684
      pz      :     0.994977  p :     2.748018
      px      :     0.864295
      py      :     0.888746
      dz2     :     0.003320  d :     0.039831
      dxz     :     0.005518
      dyz     :     0.005941
      dx2y2   :     0.011750
      dxy     :     0.013301

 25 C s       :     3.179202  s :     3.179202
      pz      :     0.964146  p :     2.920776
      px      :     0.965749
      py      :     0.990882
      dz2     :     0.002766  d :     0.034756
      dxz     :     0.007083
      dyz     :     0.004075
      dx2y2   :     0.011063
      dxy     :     0.009770

 26 H s       :     0.860884  s :     0.860884
      pz      :     0.003380  p :     0.012373
      px      :     0.001867
      py      :     0.007126

 27 C s       :     3.143041  s :     3.143041
      pz      :     0.981959  p :     2.769915
      px      :     0.902404
      py      :     0.885552
      dz2     :     0.004297  d :     0.039291
      dxz     :     0.007012
      dyz     :     0.005514
      dx2y2   :     0.011538
      dxy     :     0.010929

 28 C s       :     3.137208  s :     3.137208
      pz      :     0.939090  p :     2.744902
      px      :     0.862300
      py      :     0.943512
      dz2     :     0.004496  d :     0.041191
      dxz     :     0.007161
      dyz     :     0.005587
      dx2y2   :     0.012504
      dxy     :     0.011443

 29 C s       :     3.145572  s :     3.145572
      pz      :     1.001157  p :     2.764073
      px      :     0.847331
      py      :     0.915585
      dz2     :     0.003241  d :     0.039482
      dxz     :     0.006171
      dyz     :     0.005223
      dx2y2   :     0.013553
      dxy     :     0.011294

 30 C s       :     3.124118  s :     3.124118
      pz      :     0.822589  p :     2.711279
      px      :     0.902391
      py      :     0.986299
      dz2     :     0.008684  d :     0.040556
      dxz     :     0.013090
      dyz     :     0.007004
      dx2y2   :     0.005641
      dxy     :     0.006136

 31 C s       :     3.165049  s :     3.165049
      pz      :     0.981348  p :     2.911666
      px      :     0.965654
      py      :     0.964665
      dz2     :     0.002924  d :     0.035143
      dxz     :     0.006702
      dyz     :     0.002488
      dx2y2   :     0.013026
      dxy     :     0.010002

 32 H s       :     0.896633  s :     0.896633
      pz      :     0.002783  p :     0.012150
      px      :     0.001802
      py      :     0.007565

 33 C s       :     3.130246  s :     3.130246
      pz      :     0.921497  p :     2.729110
      px      :     0.909181
      py      :     0.898432
      dz2     :     0.008843  d :     0.040446
      dxz     :     0.005964
      dyz     :     0.008778
      dx2y2   :     0.008825
      dxy     :     0.008035

 34 C s       :     3.180263  s :     3.180263
      pz      :     1.013832  p :     2.935956
      px      :     0.967902
      py      :     0.954223
      dz2     :     0.002903  d :     0.035006
      dxz     :     0.003519
      dyz     :     0.005345
      dx2y2   :     0.011132
      dxy     :     0.012108

 35 H s       :     0.902010  s :     0.902010
      pz      :     0.002719  p :     0.012107
      px      :     0.006210
      py      :     0.003178

 36 C s       :     3.159131  s :     3.159131
      pz      :     0.997699  p :     2.905790
      px      :     0.971741
      py      :     0.936350
      dz2     :     0.003098  d :     0.033417
      dxz     :     0.004247
      dyz     :     0.004533
      dx2y2   :     0.010612
      dxy     :     0.010926

 37 H s       :     0.857678  s :     0.857678
      pz      :     0.002776  p :     0.012326
      px      :     0.005393
      py      :     0.004158

 38 C s       :     3.185727  s :     3.185727
      pz      :     0.920854  p :     2.860886
      px      :     0.940305
      py      :     0.999727
      dz2     :     0.003965  d :     0.035707
      dxz     :     0.006314
      dyz     :     0.003090
      dx2y2   :     0.012009
      dxy     :     0.010328

 39 H s       :     0.860126  s :     0.860126
      pz      :     0.002443  p :     0.012608
      px      :     0.001962
      py      :     0.008203

 40 C s       :     3.188768  s :     3.188768
      pz      :     0.916399  p :     2.895647
      px      :     0.945471
      py      :     1.033778
      dz2     :     0.009263  d :     0.049238
      dxz     :     0.009169
      dyz     :     0.010594
      dx2y2   :     0.010132
      dxy     :     0.010080

 41 C s       :     3.119549  s :     3.119549
      pz      :     0.941506  p :     2.687412
      px      :     0.845672
      py      :     0.900234
      dz2     :     0.008171  d :     0.041299
      dxz     :     0.007484
      dyz     :     0.006749
      dx2y2   :     0.009998
      dxy     :     0.008897

 42 C s       :     3.181516  s :     3.181516
      pz      :     1.006305  p :     2.935636
      px      :     0.941513
      py      :     0.987818
      dz2     :     0.002865  d :     0.035023
      dxz     :     0.006749
      dyz     :     0.003994
      dx2y2   :     0.011718
      dxy     :     0.009698

 43 H s       :     0.899280  s :     0.899280
      pz      :     0.003383  p :     0.012075
      px      :     0.001748
      py      :     0.006944

 44 C s       :     3.138847  s :     3.138847
      pz      :     0.988067  p :     2.795638
      px      :     0.853060
      py      :     0.954511
      dz2     :     0.006949  d :     0.069752
      dxz     :     0.013328
      dyz     :     0.007316
      dx2y2   :     0.019634
      dxy     :     0.022525

 45 C s       :     3.128212  s :     3.128212
      pz      :     0.955626  p :     2.702711
      px      :     0.901505
      py      :     0.845580
      dz2     :     0.005552  d :     0.041806
      dxz     :     0.007913
      dyz     :     0.006106
      dx2y2   :     0.012316
      dxy     :     0.009918

 46 C s       :     3.174959  s :     3.174959
      pz      :     0.954662  p :     2.875380
      px      :     0.960680
      py      :     0.960039
      dz2     :     0.003685  d :     0.034963
      dxz     :     0.004771
      dyz     :     0.005280
      dx2y2   :     0.010767
      dxy     :     0.010461

 47 H s       :     0.868949  s :     0.868949
      pz      :     0.002546  p :     0.012358
      px      :     0.006867
      py      :     0.002945

 48 C s       :     3.081076  s :     3.081076
      pz      :     0.936982  p :     2.709060
      px      :     0.847190
      py      :     0.924888
      dz2     :     0.005497  d :     0.059438
      dxz     :     0.009387
      dyz     :     0.008113
      dx2y2   :     0.020283
      dxy     :     0.016158

 49 C s       :     3.150417  s :     3.150417
      pz      :     0.994238  p :     2.918436
      px      :     0.970269
      py      :     0.953929
      dz2     :     0.003467  d :     0.033733
      dxz     :     0.004464
      dyz     :     0.004505
      dx2y2   :     0.010504
      dxy     :     0.010792

 50 H s       :     0.882357  s :     0.882357
      pz      :     0.002707  p :     0.012294
      px      :     0.006003
      py      :     0.003584

 51 C s       :     3.135702  s :     3.135702
      pz      :     0.946175  p :     2.748363
      px      :     0.894244
      py      :     0.907944
      dz2     :     0.003301  d :     0.041065
      dxz     :     0.005928
      dyz     :     0.006142
      dx2y2   :     0.012644
      dxy     :     0.013050

 52 C s       :     3.188375  s :     3.188375
      pz      :     0.974886  p :     2.923817
      px      :     0.978682
      py      :     0.970249
      dz2     :     0.003963  d :     0.035825
      dxz     :     0.003948
      dyz     :     0.005898
      dx2y2   :     0.009779
      dxy     :     0.012237

 53 C s       :     3.082768  s :     3.082768
      pz      :     0.935715  p :     2.711907
      px      :     0.961802
      py      :     0.814390
      dz2     :     0.004888  d :     0.059465
      dxz     :     0.006613
      dyz     :     0.010523
      dx2y2   :     0.016787
      dxy     :     0.020653

 54 C s       :     3.191736  s :     3.191736
      pz      :     0.939742  p :     2.902997
      px      :     1.009965
      py      :     0.953290
      dz2     :     0.008414  d :     0.048986
      dxz     :     0.011637
      dyz     :     0.007424
      dx2y2   :     0.010497
      dxy     :     0.011014

 55 C s       :     3.127586  s :     3.127586
      pz      :     0.966200  p :     2.754005
      px      :     0.924388
      py      :     0.863416
      dz2     :     0.003894  d :     0.039748
      dxz     :     0.005539
      dyz     :     0.006458
      dx2y2   :     0.011036
      dxy     :     0.012821

 56 C s       :     3.143688  s :     3.143688
      pz      :     0.939118  p :     2.869561
      px      :     0.999888
      py      :     0.930554
      dz2     :     0.006685  d :     0.033933
      dxz     :     0.006656
      dyz     :     0.005134
      dx2y2   :     0.008419
      dxy     :     0.007039

 57 H s       :     0.844469  s :     0.844469
      pz      :     0.002285  p :     0.012566
      px      :     0.007996
      py      :     0.002286

 58 C s       :     3.169436  s :     3.169436
      pz      :     0.949040  p :     2.870485
      px      :     0.940729
      py      :     0.980716
      dz2     :     0.002888  d :     0.035882
      dxz     :     0.007366
      dyz     :     0.004025
      dx2y2   :     0.011417
      dxy     :     0.010186

 59 H s       :     0.871595  s :     0.871595
      pz      :     0.003211  p :     0.012344
      px      :     0.001917
      py      :     0.007217

 60 C s       :     3.145334  s :     3.145334
      pz      :     1.002672  p :     2.872873
      px      :     0.880442
      py      :     0.989759
      dz2     :     0.004335  d :     0.033992
      dxz     :     0.008247
      dyz     :     0.004854
      dx2y2   :     0.007838
      dxy     :     0.008719

 61 H s       :     0.844556  s :     0.844556
      pz      :     0.004929  p :     0.012416
      px      :     0.002294
      py      :     0.005192

 62 C s       :     3.180740  s :     3.180740
      pz      :     0.968694  p :     2.866428
      px      :     0.925311
      py      :     0.972424
      dz2     :     0.008524  d :     0.050489
      dxz     :     0.011938
      dyz     :     0.006676
      dx2y2   :     0.011138
      dxy     :     0.012214

 63 C s       :     3.189146  s :     3.189146
      pz      :     1.028509  p :     2.897089
      px      :     0.838708
      py      :     1.029872
      dz2     :     0.008572  d :     0.048878
      dxz     :     0.010920
      dyz     :     0.005869
      dx2y2   :     0.012345
      dxy     :     0.011172

 64 C s       :     3.195255  s :     3.195255
      pz      :     1.005449  p :     2.882145
      px      :     0.969752
      py      :     0.906944
      dz2     :     0.009689  d :     0.049503
      dxz     :     0.007057
      dyz     :     0.011496
      dx2y2   :     0.009874
      dxy     :     0.011387

 65 C s       :     3.209205  s :     3.209205
      pz      :     0.997930  p :     2.986910
      px      :     1.010944
      py      :     0.978036
      dz2     :     0.008372  d :     0.038929
      dxz     :     0.006825
      dyz     :     0.007991
      dx2y2   :     0.009396
      dxy     :     0.006345

 66 H s       :     0.884833  s :     0.884833
      pz      :     0.002339  p :     0.011239
      px      :     0.006061
      py      :     0.002839

 67 H s       :     0.863517  s :     0.863517
      pz      :     0.005402  p :     0.011309
      px      :     0.002789
      py      :     0.003118

 68 C s       :     3.209894  s :     3.209894
      pz      :     0.991481  p :     2.988580
      px      :     0.968456
      py      :     1.028643
      dz2     :     0.008910  d :     0.038735
      dxz     :     0.009595
      dyz     :     0.004346
      dx2y2   :     0.009394
      dxy     :     0.006490

 69 H s       :     0.883952  s :     0.883952
      pz      :     0.002207  p :     0.011225
      px      :     0.002075
      py      :     0.006943

 70 H s       :     0.866257  s :     0.866257
      pz      :     0.005635  p :     0.011311
      px      :     0.002948
      py      :     0.002728

 71 C s       :     3.149278  s :     3.149278
      pz      :     1.005777  p :     2.862086
      px      :     0.979921
      py      :     0.876387
      dz2     :     0.004964  d :     0.033726
      dxz     :     0.005548
      dyz     :     0.008125
      dx2y2   :     0.007206
      dxy     :     0.007884

 72 H s       :     0.835868  s :     0.835868
      pz      :     0.005736  p :     0.012444
      px      :     0.004985
      py      :     0.001724

 73 C s       :     3.140241  s :     3.140241
      pz      :     0.828399  p :     2.734988
      px      :     1.001545
      py      :     0.905044
      dz2     :     0.008291  d :     0.041309
      dxz     :     0.006017
      dyz     :     0.015531
      dx2y2   :     0.005551
      dxy     :     0.005920

 74 C s       :     3.127809  s :     3.127809
      pz      :     0.951416  p :     2.756074
      px      :     0.899321
      py      :     0.905338
      dz2     :     0.004531  d :     0.039832
      dxz     :     0.005324
      dyz     :     0.006568
      dx2y2   :     0.011354
      dxy     :     0.012055

 75 C s       :     3.185965  s :     3.185965
      pz      :     0.846461  p :     2.888267
      px      :     1.015979
      py      :     1.025827
      dz2     :     0.013713  d :     0.049359
      dxz     :     0.013889
      dyz     :     0.008286
      dx2y2   :     0.006727
      dxy     :     0.006744

 76 C s       :     3.143175  s :     3.143175
      pz      :     0.930274  p :     2.866852
      px      :     0.971017
      py      :     0.965561
      dz2     :     0.006937  d :     0.033660
      dxz     :     0.005651
      dyz     :     0.007059
      dx2y2   :     0.006587
      dxy     :     0.007427

 77 H s       :     0.840846  s :     0.840846
      pz      :     0.002466  p :     0.012556
      px      :     0.004171
      py      :     0.005918

 78 C s       :     3.187172  s :     3.187172
      pz      :     0.866420  p :     2.892626
      px      :     1.039429
      py      :     0.986777
      dz2     :     0.013202  d :     0.049375
      dxz     :     0.007459
      dyz     :     0.015377
      dx2y2   :     0.005907
      dxy     :     0.007430

 79 C s       :     3.208734  s :     3.208734
      pz      :     1.043977  p :     2.989791
      px      :     0.996294
      py      :     0.949520
      dz2     :     0.009769  d :     0.038765
      dxz     :     0.006355
      dyz     :     0.005412
      dx2y2   :     0.007140
      dxy     :     0.010088

 80 H s       :     0.884109  s :     0.884109
      pz      :     0.003353  p :     0.011240
      px      :     0.004752
      py      :     0.003134

 81 C s       :     3.143609  s :     3.143609
      pz      :     0.962719  p :     2.872354
      px      :     0.999172
      py      :     0.910463
      dz2     :     0.008724  d :     0.033547
      dxz     :     0.003911
      dyz     :     0.010448
      dx2y2   :     0.004966
      dxy     :     0.005497

 82 H s       :     0.844222  s :     0.844222
      pz      :     0.006467  p :     0.012430
      px      :     0.002677
      py      :     0.003286

 83 C s       :     3.180677  s :     3.180677
      pz      :     0.967860  p :     2.853897
      px      :     1.015475
      py      :     0.870562
      dz2     :     0.009275  d :     0.050561
      dxz     :     0.006670
      dyz     :     0.012377
      dx2y2   :     0.011729
      dxy     :     0.010509

 84 C s       :     3.184364  s :     3.184364
      pz      :     0.898355  p :     2.877908
      px      :     0.964808
      py      :     1.014745
      dz2     :     0.012354  d :     0.049496
      dxz     :     0.014852
      dyz     :     0.008440
      dx2y2   :     0.006958
      dxy     :     0.006892

 85 C s       :     3.183123  s :     3.183123
      pz      :     1.017218  p :     2.863965
      px      :     1.027993
      py      :     0.818754
      dz2     :     0.012029  d :     0.050225
      dxz     :     0.007695
      dyz     :     0.014564
      dx2y2   :     0.008344
      dxy     :     0.007593

 86 C s       :     3.141204  s :     3.141204
      pz      :     0.984448  p :     2.871676
      px      :     0.899985
      py      :     0.987243
      dz2     :     0.008516  d :     0.033606
      dxz     :     0.009568
      dyz     :     0.004346
      dx2y2   :     0.005422
      dxy     :     0.005754

 87 H s       :     0.842817  s :     0.842817
      pz      :     0.007387  p :     0.012443
      px      :     0.002228
      py      :     0.002829

 88 C s       :     3.189463  s :     3.189463
      pz      :     0.873926  p :     2.879521
      px      :     1.029289
      py      :     0.976306
      dz2     :     0.012925  d :     0.049535
      dxz     :     0.007451
      dyz     :     0.015677
      dx2y2   :     0.006044
      dxy     :     0.007439

 89 C s       :     3.209169  s :     3.209169
      pz      :     1.035644  p :     2.986849
      px      :     0.994933
      py      :     0.956272
      dz2     :     0.012210  d :     0.038895
      dxz     :     0.004269
      dyz     :     0.004998
      dx2y2   :     0.006923
      dxy     :     0.010495

 90 C s       :     3.143428  s :     3.143428
      pz      :     0.967538  p :     2.873963
      px      :     0.998747
      py      :     0.907678
      dz2     :     0.008678  d :     0.033574
      dxz     :     0.003741
      dyz     :     0.010529
      dx2y2   :     0.005113
      dxy     :     0.005513

 91 H s       :     0.844394  s :     0.844394
      pz      :     0.006734  p :     0.012416
      px      :     0.002541
      py      :     0.003141

 92 C s       :     3.142185  s :     3.142185
      pz      :     0.944803  p :     2.872393
      px      :     0.942195
      py      :     0.985396
      dz2     :     0.008699  d :     0.033573
      dxz     :     0.009734
      dyz     :     0.005030
      dx2y2   :     0.005308
      dxy     :     0.004803

 93 H s       :     0.842685  s :     0.842685
      pz      :     0.005582  p :     0.012446
      px      :     0.004304
      py      :     0.002559

 94 C s       :     3.183879  s :     3.183879
      pz      :     1.014823  p :     2.861015
      px      :     0.852815
      py      :     0.993377
      dz2     :     0.011920  d :     0.050365
      dxz     :     0.013865
      dyz     :     0.008476
      dx2y2   :     0.007959
      dxy     :     0.008144

 95 H s       :     0.900535  s :     0.900535
      pz      :     0.002513  p :     0.011960
      px      :     0.005755
      py      :     0.003692

 96 H s       :     0.886009  s :     0.886009
      pz      :     0.002307  p :     0.011225
      px      :     0.005547
      py      :     0.003371

 97 H s       :     0.863827  s :     0.863827
      pz      :     0.006936  p :     0.011313
      px      :     0.002212
      py      :     0.002165

 98 H s       :     0.865626  s :     0.865626
      pz      :     0.006630  p :     0.011320
      px      :     0.002524
      py      :     0.002166

 99 C s       :     3.149785  s :     3.149785
      pz      :     0.987975  p :     2.895361
      px      :     0.953417
      py      :     0.953969
      dz2     :     0.005065  d :     0.039889
      dxz     :     0.006944
      dyz     :     0.005469
      dx2y2   :     0.011547
      dxy     :     0.010865

100 C s       :     3.134041  s :     3.134041
      pz      :     1.042854  p :     2.938250
      px      :     0.983543
      py      :     0.911853
      dz2     :     0.005091  d :     0.039088
      dxz     :     0.006331
      dyz     :     0.005064
      dx2y2   :     0.011161
      dxy     :     0.011442


SPIN
  0 Cls       :    -0.000000  s :    -0.000000
      pz      :    -0.000000  p :    -0.000000
      px      :    -0.000000
      py      :     0.000000
      dz2     :    -0.000000  d :    -0.000000
      dxz     :    -0.000000
      dyz     :    -0.000000
      dx2y2   :    -0.000000
      dxy     :    -0.000000

  1 Cls       :     0.000000  s :     0.000000
      pz      :     0.000000  p :     0.000000
      px      :     0.000000
      py      :     0.000000
      dz2     :     0.000000  d :     0.000000
      dxz     :     0.000000
      dyz     :     0.000000
      dx2y2   :     0.000000
      dxy     :     0.000000

  2 Cls       :    -0.000000  s :    -0.000000
      pz      :     0.000000  p :    -0.000000
      px      :    -0.000000
      py      :     0.000000
      dz2     :    -0.000000  d :    -0.000000
      dxz     :    -0.000000
      dyz     :    -0.000000
      dx2y2   :    -0.000000
      dxy     :    -0.000000

  3 Cls       :    -0.000000  s :    -0.000000
      pz      :    -0.000000  p :    -0.000000
      px      :    -0.000000
      py      :     0.000000
      dz2     :    -0.000000  d :    -0.000000
      dxz     :    -0.000000
      dyz     :    -0.000000
      dx2y2   :    -0.000000
      dxy     :    -0.000000

  4 Cls       :    -0.000000  s :    -0.000000
      pz      :     0.000000  p :     0.000000
      px      :     0.000000
      py      :     0.000000
      dz2     :     0.000000  d :     0.000000
      dxz     :    -0.000000
      dyz     :     0.000000
      dx2y2   :     0.000000
      dxy     :     0.000000

  5 Cls       :    -0.000000  s :    -0.000000
      pz      :     0.000000  p :     0.000000
      px      :     0.000000
      py      :     0.000000
      dz2     :     0.000000  d :     0.000000
      dxz     :     0.000000
      dyz     :    -0.000000
      dx2y2   :     0.000000
      dxy     :     0.000000

  6 Cls       :     0.000000  s :     0.000000
      pz      :    -0.000000  p :    -0.000000
      px      :    -0.000000
      py      :    -0.000000
      dz2     :     0.000000  d :    -0.000000
      dxz     :     0.000000
      dyz     :    -0.000000
      dx2y2   :    -0.000000
      dxy     :    -0.000000

  7 Cls       :    -0.000000  s :    -0.000000
      pz      :     0.000000  p :     0.000000
      px      :     0.000000
      py      :    -0.000000
      dz2     :     0.000000  d :     0.000000
      dxz     :     0.000000
      dyz     :     0.000000
      dx2y2   :    -0.000000
      dxy     :     0.000000

  8 Cls       :     0.000000  s :     0.000000
      pz      :     0.000000  p :     0.000000
      px      :    -0.000000
      py      :     0.000000
      dz2     :     0.000000  d :     0.000000
      dxz     :     0.000000
      dyz     :     0.000000
      dx2y2   :     0.000000
      dxy     :     0.000000

  9 Cls       :    -0.000000  s :    -0.000000
      pz      :    -0.000000  p :     0.000000
      px      :     0.000000
      py      :     0.000000
      dz2     :    -0.000000  d :     0.000000
      dxz     :     0.000000
      dyz     :     0.000000
      dx2y2   :     0.000000
      dxy     :     0.000000

 10 Cls       :     0.000000  s :     0.000000
      pz      :     0.000000  p :    -0.000000
      px      :    -0.000000
      py      :    -0.000000
      dz2     :     0.000000  d :    -0.000000
      dxz     :    -0.000000
      dyz     :    -0.000000
      dx2y2   :    -0.000000
      dxy     :    -0.000000

 11 Cls       :     0.000000  s :     0.000000
      pz      :    -0.000000  p :    -0.000000
      px      :    -0.000000
      py      :     0.000000
      dz2     :    -0.000000  d :    -0.000000
      dxz     :    -0.000000
      dyz     :    -0.000000
      dx2y2   :    -0.000000
      dxy     :    -0.000000

 12 Cls       :    -0.000000  s :    -0.000000
      pz      :     0.000000  p :     0.000000
      px      :     0.000000
      py      :    -0.000000
      dz2     :     0.000000  d :     0.000000
      dxz     :    -0.000000
      dyz     :    -0.000000
      dx2y2   :     0.000000
      dxy     :     0.000000

 13 Cls       :     0.000000  s :     0.000000
      pz      :     0.000000  p :    -0.000000
      px      :     0.000000
      py      :    -0.000000
      dz2     :     0.000000  d :    -0.000000
      dxz     :    -0.000000
      dyz     :    -0.000000
      dx2y2   :    -0.000000
      dxy     :    -0.000000

 14 N s       :     0.000000  s :     0.000000
      pz      :     0.000000  p :     0.000000
      px      :     0.000000
      py      :    -0.000000
      dz2     :    -0.000000  d :    -0.000000
      dxz     :    -0.000000
      dyz     :    -0.000000
      dx2y2   :    -0.000000
      dxy     :    -0.000000

 15 N s       :    -0.000000  s :    -0.000000
      pz      :    -0.000000  p :    -0.000000
      px      :    -0.000000
      py      :     0.000000
      dz2     :    -0.000000  d :     0.000000
      dxz     :     0.000000
      dyz     :     0.000000
      dx2y2   :    -0.000000
      dxy     :     0.000000

 16 N s       :    -0.000000  s :    -0.000000
      pz      :    -0.000000  p :     0.000000
      px      :    -0.000000
      py      :     0.000000
      dz2     :     0.000000  d :     0.000000
      dxz     :     0.000000
      dyz     :     0.000000
      dx2y2   :     0.000000
      dxy     :     0.000000

 17 C s       :    -0.000000  s :    -0.000000
      pz      :    -0.000000  p :    -0.000000
      px      :    -0.000000
      py      :    -0.000000
      dz2     :     0.000000  d :     0.000000
      dxz     :     0.000000
      dyz     :     0.000000
      dx2y2   :    -0.000000
      dxy     :     0.000000

 18 C s       :     0.000000  s :     0.000000
      pz      :     0.000000  p :     0.000000
      px      :     0.000000
      py      :     0.000000
      dz2     :    -0.000000  d :    -0.000000
      dxz     :    -0.000000
      dyz     :    -0.000000
      dx2y2   :     0.000000
      dxy     :     0.000000

 19 C s       :    -0.000000  s :    -0.000000
      pz      :    -0.000000  p :    -0.000000
      px      :    -0.000000
      py      :    -0.000000
      dz2     :     0.000000  d :     0.000000
      dxz     :     0.000000
      dyz     :     0.000000
      dx2y2   :    -0.000000
      dxy     :    -0.000000

 20 C s       :     0.000000  s :     0.000000
      pz      :     0.000000  p :     0.000000
      px      :     0.000000
      py      :     0.000000
      dz2     :    -0.000000  d :    -0.000000
      dxz     :    -0.000000
      dyz     :    -0.000000
      dx2y2   :    -0.000000
      dxy     :    -0.000000

 21 C s       :     0.000000  s :     0.000000
      pz      :     0.000000  p :     0.000000
      px      :    -0.000000
      py      :     0.000000
      dz2     :    -0.000000  d :    -0.000000
      dxz     :    -0.000000
      dyz     :    -0.000000
      dx2y2   :    -0.000000
      dxy     :     0.000000

 22 C s       :     0.000000  s :     0.000000
      pz      :     0.000000  p :     0.000000
      px      :     0.000000
      py      :     0.000000
      dz2     :    -0.000000  d :    -0.000000
      dxz     :    -0.000000
      dyz     :    -0.000000
      dx2y2   :     0.000000
      dxy     :     0.000000

 23 H s       :     0.000000  s :     0.000000
      pz      :     0.000000  p :     0.000000
      px      :     0.000000
      py      :     0.000000

 24 C s       :    -0.000000  s :    -0.000000
      pz      :    -0.000000  p :    -0.000000
      px      :    -0.000000
      py      :    -0.000000
      dz2     :     0.000000  d :     0.000000
      dxz     :     0.000000
      dyz     :     0.000000
      dx2y2   :    -0.000000
      dxy     :     0.000000

 25 C s       :     0.000000  s :     0.000000
      pz      :    -0.000000  p :    -0.000000
      px      :    -0.000000
      py      :    -0.000000
      dz2     :     0.000000  d :     0.000000
      dxz     :     0.000000
      dyz     :    -0.000000
      dx2y2   :     0.000000
      dxy     :    -0.000000

 26 H s       :     0.000000  s :     0.000000
      pz      :    -0.000000  p :    -0.000000
      px      :     0.000000
      py      :    -0.000000

 27 C s       :    -0.000000  s :    -0.000000
      pz      :     0.000000  p :     0.000000
      px      :    -0.000000
      py      :     0.000000
      dz2     :    -0.000000  d :    -0.000000
      dxz     :    -0.000000
      dyz     :    -0.000000
      dx2y2   :    -0.000000
      dxy     :    -0.000000

 28 C s       :     0.000000  s :     0.000000
      pz      :    -0.000000  p :    -0.000000
      px      :    -0.000000
      py      :    -0.000000
      dz2     :     0.000000  d :     0.000000
      dxz     :     0.000000
      dyz     :     0.000000
      dx2y2   :     0.000000
      dxy     :    -0.000000

 29 C s       :    -0.000000  s :    -0.000000
      pz      :    -0.000000  p :    -0.000000
      px      :     0.000000
      py      :    -0.000000
      dz2     :    -0.000000  d :     0.000000
      dxz     :     0.000000
      dyz     :     0.000000
      dx2y2   :     0.000000
      dxy     :    -0.000000

 30 C s       :     0.000000  s :     0.000000
      pz      :     0.000000  p :     0.000000
      px      :     0.000000
      py      :     0.000000
      dz2     :    -0.000000  d :    -0.000000
      dxz     :    -0.000000
      dyz     :    -0.000000
      dx2y2   :    -0.000000
      dxy     :    -0.000000

 31 C s       :     0.000000  s :     0.000000
      pz      :     0.000000  p :     0.000000
      px      :     0.000000
      py      :     0.000000
      dz2     :     0.000000  d :    -0.000000
      dxz     :    -0.000000
      dyz     :    -0.000000
      dx2y2   :    -0.000000
      dxy     :    -0.000000

 32 H s       :     0.000000  s :     0.000000
      pz      :     0.000000  p :     0.000000
      px      :     0.000000
      py      :     0.000000

 33 C s       :     0.000000  s :     0.000000
      pz      :     0.000000  p :     0.000000
      px      :     0.000000
      py      :     0.000000
      dz2     :    -0.000000  d :    -0.000000
      dxz     :    -0.000000
      dyz     :    -0.000000
      dx2y2   :    -0.000000
      dxy     :    -0.000000

 34 C s       :    -0.000000  s :    -0.000000
      pz      :    -0.000000  p :    -0.000000
      px      :    -0.000000
      py      :     0.000000
      dz2     :    -0.000000  d :     0.000000
      dxz     :     0.000000
      dyz     :     0.000000
      dx2y2   :    -0.000000
      dxy     :     0.000000

 35 H s       :    -0.000000  s :    -0.000000
      pz      :    -0.000000  p :     0.000000
      px      :     0.000000
      py      :     0.000000

 36 C s       :     0.000000  s :     0.000000
      pz      :     0.000000  p :     0.000000
      px      :     0.000000
      py      :     0.000000
      dz2     :    -0.000000  d :    -0.000000
      dxz     :    -0.000000
      dyz     :    -0.000000
      dx2y2   :    -0.000000
      dxy     :     0.000000

 37 H s       :    -0.000000  s :    -0.000000
      pz      :     0.000000  p :     0.000000
      px      :     0.000000
      py      :     0.000000

 38 C s       :    -0.000000  s :    -0.000000
      pz      :    -0.000000  p :    -0.000000
      px      :    -0.000000
      py      :    -0.000000
      dz2     :     0.000000  d :     0.000000
      dxz     :     0.000000
      dyz     :     0.000000
      dx2y2   :     0.000000
      dxy     :    -0.000000

 39 H s       :     0.000000  s :     0.000000
      pz      :    -0.000000  p :    -0.000000
      px      :    -0.000000
      py      :    -0.000000

 40 C s       :     0.000000  s :     0.000000
      pz      :    -0.000000  p :    -0.000000
      px      :    -0.000000
      py      :    -0.000000
      dz2     :     0.000000  d :     0.000000
      dxz     :     0.000000
      dyz     :     0.000000
      dx2y2   :     0.000000
      dxy     :     0.000000

 41 C s       :    -0.000000  s :    -0.000000
      pz      :    -0.000000  p :    -0.000000
      px      :    -0.000000
      py      :    -0.000000
      dz2     :     0.000000  d :     0.000000
      dxz     :     0.000000
      dyz     :     0.000000
      dx2y2   :     0.000000
      dxy     :     0.000000

 42 C s       :    -0.000000  s :    -0.000000
      pz      :     0.000000  p :    -0.000000
      px      :    -0.000000
      py      :    -0.000000
      dz2     :     0.000000  d :    -0.000000
      dxz     :    -0.000000
      dyz     :     0.000000
      dx2y2   :     0.000000
      dxy     :    -0.000000

 43 H s       :     0.000000  s :     0.000000
      pz      :    -0.000000  p :    -0.000000
      px      :    -0.000000
      py      :    -0.000000

 44 C s       :     0.000000  s :     0.000000
      pz      :     0.000000  p :     0.000000
      px      :     0.000000
      py      :     0.000000
      dz2     :    -0.000000  d :    -0.000000
      dxz     :    -0.000000
      dyz     :    -0.000000
      dx2y2   :     0.000000
      dxy     :    -0.000000

 45 C s       :    -0.000000  s :    -0.000000
      pz      :    -0.000000  p :    -0.000000
      px      :    -0.000000
      py      :    -0.000000
      dz2     :     0.000000  d :     0.000000
      dxz     :     0.000000
      dyz     :     0.000000
      dx2y2   :     0.000000
      dxy     :     0.000000

 46 C s       :    -0.000000  s :    -0.000000
      pz      :    -0.000000  p :    -0.000000
      px      :     0.000000
      py      :    -0.000000
      dz2     :     0.000000  d :     0.000000
      dxz     :     0.000000
      dyz     :     0.000000
      dx2y2   :    -0.000000
      dxy     :     0.000000

 47 H s       :     0.000000  s :     0.000000
      pz      :    -0.000000  p :    -0.000000
      px      :     0.000000
      py      :    -0.000000

 48 C s       :     0.000000  s :     0.000000
      pz      :     0.000000  p :    -0.000000
      px      :     0.000000
      py      :    -0.000000
      dz2     :    -0.000000  d :     0.000000
      dxz     :    -0.000000
      dyz     :    -0.000000
      dx2y2   :     0.000000
      dxy     :     0.000000

 49 C s       :    -0.000000  s :    -0.000000
      pz      :    -0.000000  p :    -0.000000
      px      :     0.000000
      py      :    -0.000000
      dz2     :     0.000000  d :     0.000000
      dxz     :     0.000000
      dyz     :     0.000000
      dx2y2   :     0.000000
      dxy     :     0.000000

 50 H s       :     0.000000  s :     0.000000
      pz      :    -0.000000  p :    -0.000000
      px      :     0.000000
      py      :    -0.000000

 51 C s       :     0.000000  s :     0.000000
      pz      :     0.000000  p :     0.000000
      px      :    -0.000000
      py      :     0.000000
      dz2     :    -0.000000  d :     0.000000
      dxz     :    -0.000000
      dyz     :    -0.000000
      dx2y2   :     0.000000
      dxy     :     0.000000

 52 C s       :     0.000000  s :     0.000000
      pz      :     0.000000  p :     0.000000
      px      :    -0.000000
      py      :     0.000000
      dz2     :    -0.000000  d :    -0.000000
      dxz     :    -0.000000
      dyz     :    -0.000000
      dx2y2   :     0.000000
      dxy     :    -0.000000

 53 C s       :    -0.000000  s :    -0.000000
      pz      :    -0.000000  p :     0.000000
      px      :    -0.000000
      py      :     0.000000
      dz2     :    -0.000000  d :    -0.000000
      dxz     :    -0.000000
      dyz     :    -0.000000
      dx2y2   :    -0.000000
      dxy     :    -0.000000

 54 C s       :     0.000000  s :     0.000000
      pz      :     0.000000  p :     0.000000
      px      :     0.000000
      py      :     0.000000
      dz2     :    -0.000000  d :    -0.000000
      dxz     :    -0.000000
      dyz     :    -0.000000
      dx2y2   :    -0.000000
      dxy     :    -0.000000

 55 C s       :     0.000000  s :     0.000000
      pz      :     0.000000  p :    -0.000000
      px      :    -0.000000
      py      :     0.000000
      dz2     :     0.000000  d :     0.000000
      dxz     :     0.000000
      dyz     :     0.000000
      dx2y2   :    -0.000000
      dxy     :    -0.000000

 56 C s       :    -0.000000  s :    -0.000000
      pz      :    -0.000000  p :    -0.000000
      px      :    -0.000000
      py      :    -0.000000
      dz2     :     0.000000  d :     0.000000
      dxz     :     0.000000
      dyz     :    -0.000000
      dx2y2   :     0.000000
      dxy     :     0.000000

 57 H s       :     0.000000  s :     0.000000
      pz      :    -0.000000  p :    -0.000000
      px      :     0.000000
      py      :    -0.000000

 58 C s       :     0.000000  s :     0.000000
      pz      :     0.000000  p :     0.000000
      px      :     0.000000
      py      :     0.000000
      dz2     :    -0.000000  d :    -0.000000
      dxz     :    -0.000000
      dyz     :    -0.000000
      dx2y2   :    -0.000000
      dxy     :     0.000000

 59 H s       :    -0.000000  s :    -0.000000
      pz      :     0.000000  p :     0.000000
      px      :    -0.000000
      py      :     0.000000

 60 C s       :    -0.000000  s :    -0.000000
      pz      :    -0.000000  p :    -0.000000
      px      :    -0.000000
      py      :    -0.000000
      dz2     :     0.000000  d :     0.000000
      dxz     :     0.000000
      dyz     :     0.000000
      dx2y2   :     0.000000
      dxy     :     0.000000

 61 H s       :     0.000000  s :     0.000000
      pz      :    -0.000000  p :    -0.000000
      px      :    -0.000000
      py      :    -0.000000

 62 C s       :     0.000000  s :     0.000000
      pz      :     0.000000  p :     0.000000
      px      :     0.000000
      py      :     0.000000
      dz2     :    -0.000000  d :    -0.000000
      dxz     :    -0.000000
      dyz     :    -0.000000
      dx2y2   :    -0.000000
      dxy     :    -0.000000

 63 C s       :     0.000000  s :     0.000000
      pz      :     0.000000  p :     0.000000
      px      :     0.000000
      py      :     0.000000
      dz2     :    -0.000000  d :    -0.000000
      dxz     :    -0.000000
      dyz     :    -0.000000
      dx2y2   :    -0.000000
      dxy     :     0.000000

 64 C s       :    -0.000000  s :    -0.000000
      pz      :    -0.000000  p :    -0.000000
      px      :    -0.000000
      py      :    -0.000000
      dz2     :     0.000000  d :     0.000000
      dxz     :     0.000000
      dyz     :     0.000000
      dx2y2   :    -0.000000
      dxy     :     0.000000

 65 C s       :    -0.000000  s :    -0.000000
      pz      :     0.000000  p :     0.000000
      px      :     0.000000
      py      :    -0.000000
      dz2     :     0.000000  d :     0.000000
      dxz     :     0.000000
      dyz     :    -0.000000
      dx2y2   :     0.000000
      dxy     :     0.000000

 66 H s       :     0.000000  s :     0.000000
      pz      :     0.000000  p :     0.000000
      px      :    -0.000000
      py      :     0.000000

 67 H s       :     0.000000  s :     0.000000
      pz      :     0.000000  p :    -0.000000
      px      :    -0.000000
      py      :    -0.000000

 68 C s       :    -0.000000  s :    -0.000000
      pz      :     0.000000  p :     0.000000
      px      :     0.000000
      py      :     0.000000
      dz2     :    -0.000000  d :    -0.000000
      dxz     :    -0.000000
      dyz     :     0.000000
      dx2y2   :    -0.000000
      dxy     :     0.000000

 69 H s       :     0.000000  s :     0.000000
      pz      :    -0.000000  p :    -0.000000
      px      :     0.000000
      py      :    -0.000000

 70 H s       :    -0.000000  s :    -0.000000
      pz      :    -0.000000  p :    -0.000000
      px      :     0.000000
      py      :     0.000000

 71 C s       :    -0.000000  s :    -0.000000
      pz      :     0.000000  p :     0.000000
      px      :     0.000000
      py      :     0.000000
      dz2     :    -0.000000  d :    -0.000000
      dxz     :    -0.000000
      dyz     :    -0.000000
      dx2y2   :    -0.000000
      dxy     :    -0.000000

 72 H s       :    -0.000000  s :    -0.000000
      pz      :     0.000000  p :     0.000000
      px      :     0.000000
      py      :    -0.000000

 73 C s       :    -0.000000  s :    -0.000000
      pz      :    -0.000000  p :    -0.000000
      px      :    -0.000000
      py      :    -0.000000
      dz2     :    -0.000000  d :     0.000000
      dxz     :     0.000000
      dyz     :     0.000000
      dx2y2   :     0.000000
      dxy     :     0.000000

 74 C s       :    -0.000000  s :    -0.000000
      pz      :    -0.000000  p :     0.000000
      px      :    -0.000000
      py      :     0.000000
      dz2     :     0.000000  d :     0.000000
      dxz     :     0.000000
      dyz     :    -0.000000
      dx2y2   :     0.000000
      dxy     :     0.000000

 75 C s       :     0.000000  s :     0.000000
      pz      :     0.000000  p :    -0.000000
      px      :    -0.000000
      py      :    -0.000000
      dz2     :     0.000000  d :     0.000000
      dxz     :    -0.000000
      dyz     :     0.000000
      dx2y2   :     0.000000
      dxy     :     0.000000

 76 C s       :    -0.000000  s :    -0.000000
      pz      :     0.000000  p :     0.000000
      px      :     0.000000
      py      :    -0.000000
      dz2     :    -0.000000  d :    -0.000000
      dxz     :    -0.000000
      dyz     :    -0.000000
      dx2y2   :    -0.000000
      dxy     :    -0.000000

 77 H s       :    -0.000000  s :    -0.000000
      pz      :     0.000000  p :     0.000000
      px      :     0.000000
      py      :     0.000000

 78 C s       :     0.000000  s :     0.000000
      pz      :     0.000000  p :     0.000000
      px      :     0.000000
      py      :    -0.000000
      dz2     :     0.000000  d :    -0.000000
      dxz     :    -0.000000
      dyz     :     0.000000
      dx2y2   :     0.000000
      dxy     :    -0.000000

 79 C s       :     0.000000  s :     0.000000
      pz      :    -0.000000  p :     0.000000
      px      :     0.000000
      py      :     0.000000
      dz2     :     0.000000  d :     0.000000
      dxz     :     0.000000
      dyz     :     0.000000
      dx2y2   :     0.000000
      dxy     :     0.000000

 80 H s       :     0.000000  s :     0.000000
      pz      :    -0.000000  p :     0.000000
      px      :     0.000000
      py      :    -0.000000

 81 C s       :     0.000000  s :     0.000000
      pz      :     0.000000  p :    -0.000000
      px      :    -0.000000
      py      :    -0.000000
      dz2     :     0.000000  d :     0.000000
      dxz     :     0.000000
      dyz     :     0.000000
      dx2y2   :     0.000000
      dxy     :     0.000000

 82 H s       :     0.000000  s :     0.000000
      pz      :    -0.000000  p :    -0.000000
      px      :    -0.000000
      py      :     0.000000

 83 C s       :    -0.000000  s :    -0.000000
      pz      :    -0.000000  p :    -0.000000
      px      :    -0.000000
      py      :    -0.000000
      dz2     :     0.000000  d :     0.000000
      dxz     :     0.000000
      dyz     :     0.000000
      dx2y2   :     0.000000
      dxy     :     0.000000

 84 C s       :    -0.000000  s :    -0.000000
      pz      :    -0.000000  p :    -0.000000
      px      :    -0.000000
      py      :    -0.000000
      dz2     :     0.000000  d :     0.000000
      dxz     :     0.000000
      dyz     :     0.000000
      dx2y2   :     0.000000
      dxy     :     0.000000

 85 C s       :     0.000000  s :     0.000000
      pz      :     0.000000  p :     0.000000
      px      :     0.000000
      py      :     0.000000
      dz2     :    -0.000000  d :    -0.000000
      dxz     :    -0.000000
      dyz     :     0.000000
      dx2y2   :    -0.000000
      dxy     :    -0.000000

 86 C s       :    -0.000000  s :    -0.000000
      pz      :    -0.000000  p :     0.000000
      px      :     0.000000
      py      :     0.000000
      dz2     :    -0.000000  d :    -0.000000
      dxz     :    -0.000000
      dyz     :    -0.000000
      dx2y2   :    -0.000000
      dxy     :    -0.000000

 87 H s       :    -0.000000  s :    -0.000000
      pz      :    -0.000000  p :    -0.000000
      px      :    -0.000000
      py      :     0.000000

 88 C s       :     0.000000  s :     0.000000
      pz      :     0.000000  p :     0.000000
      px      :     0.000000
      py      :     0.000000
      dz2     :    -0.000000  d :    -0.000000
      dxz     :    -0.000000
      dyz     :    -0.000000
      dx2y2   :     0.000000
      dxy     :    -0.000000

 89 C s       :     0.000000  s :     0.000000
      pz      :     0.000000  p :     0.000000
      px      :     0.000000
      py      :     0.000000
      dz2     :     0.000000  d :    -0.000000
      dxz     :    -0.000000
      dyz     :    -0.000000
      dx2y2   :    -0.000000
      dxy     :    -0.000000

 90 C s       :    -0.000000  s :    -0.000000
      pz      :     0.000000  p :    -0.000000
      px      :    -0.000000
      py      :    -0.000000
      dz2     :     0.000000  d :     0.000000
      dxz     :     0.000000
      dyz     :     0.000000
      dx2y2   :    -0.000000
      dxy     :     0.000000

 91 H s       :     0.000000  s :     0.000000
      pz      :    -0.000000  p :    -0.000000
      px      :    -0.000000
      py      :     0.000000

 92 C s       :    -0.000000  s :    -0.000000
      pz      :    -0.000000  p :     0.000000
      px      :     0.000000
      py      :     0.000000
      dz2     :    -0.000000  d :    -0.000000
      dxz     :    -0.000000
      dyz     :    -0.000000
      dx2y2   :    -0.000000
      dxy     :    -0.000000

 93 H s       :    -0.000000  s :    -0.000000
      pz      :     0.000000  p :     0.000000
      px      :     0.000000
      py      :     0.000000

 94 C s       :     0.000000  s :     0.000000
      pz      :    -0.000000  p :    -0.000000
      px      :    -0.000000
      py      :    -0.000000
      dz2     :     0.000000  d :     0.000000
      dxz     :    -0.000000
      dyz     :     0.000000
      dx2y2   :     0.000000
      dxy     :     0.000000

 95 H s       :     0.000000  s :     0.000000
      pz      :     0.000000  p :     0.000000
      px      :     0.000000
      py      :    -0.000000

 96 H s       :     0.000000  s :     0.000000
      pz      :     0.000000  p :     0.000000
      px      :     0.000000
      py      :     0.000000

 97 H s       :     0.000000  s :     0.000000
      pz      :     0.000000  p :     0.000000
      px      :    -0.000000
      py      :     0.000000

 98 H s       :     0.000000  s :     0.000000
      pz      :     0.000000  p :    -0.000000
      px      :     0.000000
      py      :    -0.000000

 99 C s       :    -0.000000  s :    -0.000000
      pz      :    -0.000000  p :    -0.000000
      px      :    -0.000000
      py      :    -0.000000
      dz2     :     0.000000  d :     0.000000
      dxz     :     0.000000
      dyz     :     0.000000
      dx2y2   :     0.000000
      dxy     :     0.000000

100 C s       :     0.000000  s :     0.000000
      pz      :     0.000000  p :     0.000000
      px      :     0.000000
      py      :     0.000000
      dz2     :    -0.000000  d :    -0.000000
      dxz     :    -0.000000
      dyz     :     0.000000
      dx2y2   :    -0.000000
      dxy     :    -0.000000



                     *******************************
                     * LOEWDIN POPULATION ANALYSIS *
                     *******************************

-------------------------------------------
LOEWDIN ATOMIC CHARGES AND SPIN POPULATIONS
-------------------------------------------
   0 Cl:    0.046071   -0.000000
   1 Cl:    0.032466    0.000000
   2 Cl:    0.061824   -0.000000
   3 Cl:    0.070179   -0.000000
   4 Cl:    0.060216    0.000000
   5 Cl:    0.057745    0.000000
   6 Cl:    0.063340   -0.000000
   7 Cl:    0.057729    0.000000
   8 Cl:    0.066273    0.000000
   9 Cl:    0.064702    0.000000
  10 Cl:    0.064972   -0.000000
  11 Cl:    0.069114   -0.000000
  12 Cl:    0.053014    0.000000
  13 Cl:    0.056743   -0.000000
  14 N :   -0.109237    0.000000
  15 N :   -0.106483   -0.000000
  16 N :   -0.115419   -0.000000
  17 C :   -0.016614   -0.000000
  18 C :    0.047617    0.000000
  19 C :    0.058066   -0.000000
  20 C :   -0.043025    0.000000
  21 C :   -0.031431    0.000000
  22 C :   -0.025737    0.000000
  23 H :    0.094173    0.000000
  24 C :   -0.029556   -0.000000
  25 C :   -0.040675   -0.000000
  26 H :    0.088363    0.000000
  27 C :   -0.027441    0.000000
  28 C :    0.001882   -0.000000
  29 C :   -0.027918   -0.000000
  30 C :   -0.041997    0.000000
  31 C :   -0.062601    0.000000
  32 H :    0.074995    0.000000
  33 C :   -0.044744    0.000000
  34 C :   -0.080888   -0.000000
  35 H :    0.074326    0.000000
  36 C :   -0.081516    0.000000
  37 H :    0.093859   -0.000000
  38 C :   -0.017806   -0.000000
  39 H :    0.091064    0.000000
  40 C :   -0.066821   -0.000000
  41 C :   -0.034080   -0.000000
  42 C :   -0.080495    0.000000
  43 H :    0.075416    0.000000
  44 C :   -0.032798    0.000000
  45 C :   -0.036641   -0.000000
  46 C :   -0.040496   -0.000000
  47 H :    0.088377    0.000000
  48 C :    0.025535    0.000000
  49 C :   -0.088493   -0.000000
  50 H :    0.083523    0.000000
  51 C :   -0.000833    0.000000
  52 C :   -0.054467    0.000000
  53 C :    0.024926    0.000000
  54 C :   -0.068868    0.000000
  55 C :   -0.027646    0.000000
  56 C :   -0.084154   -0.000000
  57 H :    0.100180    0.000000
  58 C :   -0.025291    0.000000
  59 H :    0.087983    0.000000
  60 C :   -0.087176   -0.000000
  61 H :    0.100907    0.000000
  62 C :   -0.078510    0.000000
  63 C :   -0.066843    0.000000
  64 C :   -0.060232   -0.000000
  65 C :   -0.116813    0.000000
  66 H :    0.075851    0.000000
  67 H :    0.083177   -0.000000
  68 C :   -0.117355   -0.000000
  69 H :    0.076406   -0.000000
  70 H :    0.082041   -0.000000
  71 C :   -0.078963    0.000000
  72 H :    0.105011   -0.000000
  73 C :   -0.040832   -0.000000
  74 C :   -0.028493   -0.000000
  75 C :   -0.058825   -0.000000
  76 C :   -0.081252    0.000000
  77 H :    0.102168   -0.000000
  78 C :   -0.069883    0.000000
  79 C :   -0.117813    0.000000
  80 H :    0.076459    0.000000
  81 C :   -0.085132   -0.000000
  82 H :    0.101197    0.000000
  83 C :   -0.065259   -0.000000
  84 C :   -0.055988   -0.000000
  85 C :   -0.074442    0.000000
  86 C :   -0.083125    0.000000
  87 H :    0.102109   -0.000000
  88 C :   -0.065088    0.000000
  89 C :   -0.117041    0.000000
  90 C :   -0.085789   -0.000000
  91 H :    0.101073    0.000000
  92 C :   -0.083736    0.000000
  93 H :    0.102104   -0.000000
  94 C :   -0.068404   -0.000000
  95 H :    0.075233    0.000000
  96 H :    0.075450    0.000000
  97 H :    0.082817    0.000000
  98 H :    0.082361    0.000000
  99 C :    0.009353   -0.000000
 100 C :   -0.037225    0.000000

----------------------------------------------------
LOEWDIN REDUCED ORBITAL CHARGES AND SPIN POPULATIONS
----------------------------------------------------
CHARGE
  0 Cls       :     5.804688  s :     5.804688
      pz      :     3.872009  p :    11.117658
      px      :     3.636261
      py      :     3.609388
      dz2     :     0.004616  d :     0.031583
      dxz     :     0.003913
      dyz     :     0.004472
      dx2y2   :     0.002974
      dxy     :     0.015608

  1 Cls       :     5.802313  s :     5.802313
      pz      :     3.854701  p :    11.132730
      px      :     3.537333
      py      :     3.740696
      dz2     :     0.004328  d :     0.032491
      dxz     :     0.007061
      dyz     :     0.003168
      dx2y2   :     0.004082
      dxy     :     0.013851

  2 Cls       :     5.796675  s :     5.796675
      pz      :     3.549529  p :    11.106983
      px      :     3.622944
      py      :     3.934511
      dz2     :     0.007636  d :     0.034518
      dxz     :     0.016736
      dyz     :     0.002406
      dx2y2   :     0.005691
      dxy     :     0.002049

  3 Cls       :     5.795581  s :     5.795581
      pz      :     3.844502  p :    11.099496
      px      :     3.729081
      py      :     3.525912
      dz2     :     0.004224  d :     0.034744
      dxz     :     0.003377
      dyz     :     0.008001
      dx2y2   :     0.005569
      dxy     :     0.013572

  4 Cls       :     5.795645  s :     5.795645
      pz      :     3.623475  p :    11.109498
      px      :     3.839504
      py      :     3.646520
      dz2     :     0.005831  d :     0.034641
      dxz     :     0.005750
      dyz     :     0.012904
      dx2y2   :     0.004403
      dxy     :     0.005752

  5 Cls       :     5.796532  s :     5.796532
      pz      :     3.885617  p :    11.111421
      px      :     3.317393
      py      :     3.908410
      dz2     :     0.004848  d :     0.034303
      dxz     :     0.008378
      dyz     :     0.000624
      dx2y2   :     0.013752
      dxy     :     0.006700

  6 Cls       :     5.795626  s :     5.795626
      pz      :     3.308239  p :    11.106797
      px      :     3.897929
      py      :     3.900628
      dz2     :     0.018068  d :     0.034237
      dxz     :     0.006939
      dyz     :     0.007667
      dx2y2   :     0.000805
      dxy     :     0.000757

  7 Cls       :     5.795955  s :     5.795955
      pz      :     3.376320  p :    11.112183
      px      :     3.924408
      py      :     3.811456
      dz2     :     0.013356  d :     0.034133
      dxz     :     0.005448
      dyz     :     0.012491
      dx2y2   :     0.001298
      dxy     :     0.001540

  8 Cls       :     5.792759  s :     5.792759
      pz      :     3.724882  p :    11.106520
      px      :     3.633719
      py      :     3.747919
      dz2     :     0.004008  d :     0.034448
      dxz     :     0.010751
      dyz     :     0.006022
      dx2y2   :     0.003603
      dxy     :     0.010065

  9 Cls       :     5.795193  s :     5.795193
      pz      :     3.401925  p :    11.105490
      px      :     3.915860
      py      :     3.787705
      dz2     :     0.011809  d :     0.034615
      dxz     :     0.005547
      dyz     :     0.013681
      dx2y2   :     0.001655
      dxy     :     0.001923

 10 Cls       :     5.795293  s :     5.795293
      pz      :     3.487270  p :    11.105222
      px      :     3.710150
      py      :     3.907802
      dz2     :     0.007721  d :     0.034514
      dxz     :     0.016060
      dyz     :     0.004962
      dx2y2   :     0.003182
      dxy     :     0.002590

 11 Cls       :     5.793855  s :     5.793855
      pz      :     3.757881  p :    11.103127
      px      :     3.922844
      py      :     3.422403
      dz2     :     0.003492  d :     0.033904
      dxz     :     0.001342
      dyz     :     0.014265
      dx2y2   :     0.010193
      dxy     :     0.004612

 12 Cls       :     5.794699  s :     5.794699
      pz      :     3.944199  p :    11.118798
      px      :     3.912192
      py      :     3.262407
      dz2     :     0.006048  d :     0.033489
      dxz     :     0.000132
      dyz     :     0.003794
      dx2y2   :     0.015939
      dxy     :     0.007577

 13 Cls       :     5.795065  s :     5.795065
      pz      :     3.925294  p :    11.114781
      px      :     3.366824
      py      :     3.822662
      dz2     :     0.005434  d :     0.033411
      dxz     :     0.004602
      dyz     :     0.000934
      dx2y2   :     0.010979
      dxy     :     0.011462

 14 N s       :     3.210762  s :     3.210762
      pz      :     1.135851  p :     3.811461
      px      :     1.123889
      py      :     1.551721
      dz2     :     0.010204  d :     0.087014
      dxz     :     0.017007
      dyz     :     0.008877
      dx2y2   :     0.019398
      dxy     :     0.031527

 15 N s       :     3.208743  s :     3.208743
      pz      :     1.200970  p :     3.810128
      px      :     1.117693
      py      :     1.491465
      dz2     :     0.009359  d :     0.087612
      dxz     :     0.020812
      dyz     :     0.006645
      dx2y2   :     0.018493
      dxy     :     0.032302

 16 N s       :     3.212178  s :     3.212178
      pz      :     1.146205  p :     3.818117
      px      :     1.412198
      py      :     1.259713
      dz2     :     0.009901  d :     0.085125
      dxz     :     0.011661
      dyz     :     0.014176
      dx2y2   :     0.029367
      dxy     :     0.020020

 17 C s       :     2.895115  s :     2.895115
      pz      :     0.961178  p :     2.961292
      px      :     0.988825
      py      :     1.011289
      dz2     :     0.011725  d :     0.160207
      dxz     :     0.021205
      dyz     :     0.019664
      dx2y2   :     0.047303
      dxy     :     0.060309

 18 C s       :     2.856559  s :     2.856559
      pz      :     0.922101  p :     2.951602
      px      :     0.994204
      py      :     1.035297
      dz2     :     0.010381  d :     0.144223
      dxz     :     0.019116
      dyz     :     0.017116
      dx2y2   :     0.048948
      dxy     :     0.048661

 19 C s       :     2.859037  s :     2.859037
      pz      :     0.898638  p :     2.938236
      px      :     0.991892
      py      :     1.047706
      dz2     :     0.009378  d :     0.144661
      dxz     :     0.016737
      dyz     :     0.017502
      dx2y2   :     0.051302
      dxy     :     0.049741

 20 C s       :     2.866312  s :     2.866312
      pz      :     0.998418  p :     3.071447
      px      :     1.032679
      py      :     1.040351
      dz2     :     0.010191  d :     0.105266
      dxz     :     0.014794
      dyz     :     0.013099
      dx2y2   :     0.033873
      dxy     :     0.033310

 21 C s       :     2.862085  s :     2.862085
      pz      :     0.997154  p :     3.068117
      px      :     1.029563
      py      :     1.041400
      dz2     :     0.009225  d :     0.101229
      dxz     :     0.015062
      dyz     :     0.012806
      dx2y2   :     0.031291
      dxy     :     0.032845

 22 C s       :     2.888612  s :     2.888612
      pz      :     0.934892  p :     3.054364
      px      :     1.073555
      py      :     1.045917
      dz2     :     0.005451  d :     0.082762
      dxz     :     0.006844
      dyz     :     0.011182
      dx2y2   :     0.029172
      dxy     :     0.030113

 23 H s       :     0.861125  s :     0.861125
      pz      :     0.007626  p :     0.044702
      px      :     0.024416
      py      :     0.012660

 24 C s       :     2.861269  s :     2.861269
      pz      :     0.983020  p :     3.066369
      px      :     1.026820
      py      :     1.056528
      dz2     :     0.006903  d :     0.101918
      dxz     :     0.011541
      dyz     :     0.012727
      dx2y2   :     0.033265
      dxy     :     0.037481

 25 C s       :     2.888419  s :     2.888419
      pz      :     0.974158  p :     3.069431
      px      :     1.043927
      py      :     1.051347
      dz2     :     0.005879  d :     0.082825
      dxz     :     0.015835
      dyz     :     0.007241
      dx2y2   :     0.028271
      dxy     :     0.025598

 26 H s       :     0.868410  s :     0.868410
      pz      :     0.011257  p :     0.043227
      px      :     0.006569
      py      :     0.025401

 27 C s       :     2.861185  s :     2.861185
      pz      :     0.994975  p :     3.065430
      px      :     1.032719
      py      :     1.037736
      dz2     :     0.009095  d :     0.100825
      dxz     :     0.016081
      dyz     :     0.013002
      dx2y2   :     0.031885
      dxy     :     0.030762

 28 C s       :     2.870375  s :     2.870375
      pz      :     0.955510  p :     3.026889
      px      :     1.038101
      py      :     1.033278
      dz2     :     0.009616  d :     0.100855
      dxz     :     0.015655
      dyz     :     0.012734
      dx2y2   :     0.031947
      dxy     :     0.030904

 29 C s       :     2.860908  s :     2.860908
      pz      :     0.982957  p :     3.065601
      px      :     1.059797
      py      :     1.022847
      dz2     :     0.006897  d :     0.101409
      dxz     :     0.013132
      dyz     :     0.010726
      dx2y2   :     0.038060
      dxy     :     0.032594

 30 C s       :     2.863250  s :     2.863250
      pz      :     1.042361  p :     3.074309
      px      :     1.023355
      py      :     1.008593
      dz2     :     0.026188  d :     0.104437
      dxz     :     0.035725
      dyz     :     0.016208
      dx2y2   :     0.012572
      dxy     :     0.013743

 31 C s       :     2.890152  s :     2.890152
      pz      :     0.975729  p :     3.088665
      px      :     1.058126
      py      :     1.054809
      dz2     :     0.005575  d :     0.083784
      dxz     :     0.014551
      dyz     :     0.004294
      dx2y2   :     0.032538
      dxy     :     0.026826

 32 H s       :     0.884373  s :     0.884373
      pz      :     0.008368  p :     0.040631
      px      :     0.006116
      py      :     0.026147

 33 C s       :     2.865306  s :     2.865306
      pz      :     1.028804  p :     3.075776
      px      :     1.018444
      py      :     1.028529
      dz2     :     0.021184  d :     0.103662
      dxz     :     0.016088
      dyz     :     0.022420
      dx2y2   :     0.022465
      dxy     :     0.021504

 34 C s       :     2.888471  s :     2.888471
      pz      :     0.997925  p :     3.107792
      px      :     1.056488
      py      :     1.053379
      dz2     :     0.005576  d :     0.084625
      dxz     :     0.006859
      dyz     :     0.011479
      dx2y2   :     0.029274
      dxy     :     0.031438

 35 H s       :     0.885853  s :     0.885853
      pz      :     0.008280  p :     0.039821
      px      :     0.020954
      py      :     0.010586

 36 C s       :     2.892240  s :     2.892240
      pz      :     0.993056  p :     3.106929
      px      :     1.060840
      py      :     1.053033
      dz2     :     0.006229  d :     0.082348
      dxz     :     0.008627
      dyz     :     0.009905
      dx2y2   :     0.028895
      dxy     :     0.028692

 37 H s       :     0.864037  s :     0.864037
      pz      :     0.008772  p :     0.042105
      px      :     0.018643
      py      :     0.014689

 38 C s       :     2.896739  s :     2.896739
      pz      :     0.924645  p :     3.036657
      px      :     1.044141
      py      :     1.067871
      dz2     :     0.007584  d :     0.084410
      dxz     :     0.014172
      dyz     :     0.006039
      dx2y2   :     0.029355
      dxy     :     0.027260

 39 H s       :     0.865878  s :     0.865878
      pz      :     0.007297  p :     0.043058
      px      :     0.006307
      py      :     0.029454

 40 C s       :     2.908503  s :     2.908503
      pz      :     0.972287  p :     3.044157
      px      :     0.984963
      py      :     1.086906
      dz2     :     0.019985  d :     0.114161
      dxz     :     0.019890
      dyz     :     0.025692
      dx2y2   :     0.024330
      dxy     :     0.024263

 41 C s       :     2.863893  s :     2.863893
      pz      :     1.016487  p :     3.064474
      px      :     1.033451
      py      :     1.014536
      dz2     :     0.018734  d :     0.105713
      dxz     :     0.019418
      dyz     :     0.016393
      dx2y2   :     0.026862
      dxy     :     0.024306

 42 C s       :     2.888697  s :     2.888697
      pz      :     1.002375  p :     3.107065
      px      :     1.058533
      py      :     1.046157
      dz2     :     0.005938  d :     0.084732
      dxz     :     0.015733
      dyz     :     0.007136
      dx2y2   :     0.030326
      dxy     :     0.025599

 43 H s       :     0.884738  s :     0.884738
      pz      :     0.010724  p :     0.039846
      px      :     0.005683
      py      :     0.023439

 44 C s       :     2.893657  s :     2.893657
      pz      :     0.992000  p :     2.978559
      px      :     0.977878
      py      :     1.008682
      dz2     :     0.014616  d :     0.160582
      dxz     :     0.027646
      dyz     :     0.015976
      dx2y2   :     0.047983
      dxy     :     0.054360

 45 C s       :     2.864781  s :     2.864781
      pz      :     0.996362  p :     3.063835
      px      :     1.039846
      py      :     1.027626
      dz2     :     0.012004  d :     0.108025
      dxz     :     0.018170
      dyz     :     0.015257
      dx2y2   :     0.033709
      dxy     :     0.028886

 46 C s       :     2.892270  s :     2.892270
      pz      :     0.961142  p :     3.064857
      px      :     1.068303
      py      :     1.035413
      dz2     :     0.007421  d :     0.083368
      dxz     :     0.009913
      dyz     :     0.011886
      dx2y2   :     0.027317
      dxy     :     0.026830

 47 H s       :     0.869507  s :     0.869507
      pz      :     0.008045  p :     0.042116
      px      :     0.023933
      py      :     0.010137

 48 C s       :     2.849768  s :     2.849768
      pz      :     0.945663  p :     2.978860
      px      :     1.016205
      py      :     1.016992
      dz2     :     0.011191  d :     0.145836
      dxz     :     0.021530
      dyz     :     0.017434
      dx2y2   :     0.053700
      dxy     :     0.041981

 49 C s       :     2.891122  s :     2.891122
      pz      :     0.999927  p :     3.114309
      px      :     1.064385
      py      :     1.049997
      dz2     :     0.006911  d :     0.083062
      dxz     :     0.009633
      dyz     :     0.010265
      dx2y2   :     0.028319
      dxy     :     0.027934

 50 H s       :     0.874870  s :     0.874870
      pz      :     0.008360  p :     0.041607
      px      :     0.020723
      py      :     0.012525

 51 C s       :     2.870148  s :     2.870148
      pz      :     0.942416  p :     3.030084
      px      :     1.035350
      py      :     1.052317
      dz2     :     0.006616  d :     0.100601
      dxz     :     0.011870
      dyz     :     0.012863
      dx2y2   :     0.034065
      dxy     :     0.035187

 52 C s       :     2.890203  s :     2.890203
      pz      :     0.974953  p :     3.077995
      px      :     1.048764
      py      :     1.054277
      dz2     :     0.007818  d :     0.086269
      dxz     :     0.008437
      dyz     :     0.013591
      dx2y2   :     0.025882
      dxy     :     0.030540

 53 C s       :     2.850397  s :     2.850397
      pz      :     0.943606  p :     2.978930
      px      :     1.027640
      py      :     1.007684
      dz2     :     0.010602  d :     0.145747
      dxz     :     0.013673
      dyz     :     0.022380
      dx2y2   :     0.044104
      dxy     :     0.054988

 54 C s       :     2.907930  s :     2.907930
      pz      :     0.988737  p :     3.047446
      px      :     1.070798
      py      :     0.987911
      dz2     :     0.017660  d :     0.113492
      dxz     :     0.027562
      dyz     :     0.016173
      dx2y2   :     0.025661
      dxy     :     0.026436

 55 C s       :     2.871965  s :     2.871965
      pz      :     0.973328  p :     3.056057
      px      :     1.054350
      py      :     1.028380
      dz2     :     0.008255  d :     0.099623
      dxz     :     0.013054
      dyz     :     0.013602
      dx2y2   :     0.031086
      dxy     :     0.033626

 56 C s       :     2.891742  s :     2.891742
      pz      :     1.017099  p :     3.108074
      px      :     1.069571
      py      :     1.021404
      dz2     :     0.014851  d :     0.084339
      dxz     :     0.016592
      dyz     :     0.015112
      dx2y2   :     0.019985
      dxy     :     0.017798

 57 H s       :     0.857280  s :     0.857280
      pz      :     0.007064  p :     0.042540
      px      :     0.028364
      py      :     0.007111

 58 C s       :     2.893967  s :     2.893967
      pz      :     0.945749  p :     3.046479
      px      :     1.052960
      py      :     1.047770
      dz2     :     0.005965  d :     0.084845
      dxz     :     0.016339
      dyz     :     0.007021
      dx2y2   :     0.028525
      dxy     :     0.026996

 59 H s       :     0.870579  s :     0.870579
      pz      :     0.010196  p :     0.041438
      px      :     0.006135
      py      :     0.025107

 60 C s       :     2.892375  s :     2.892375
      pz      :     1.031350  p :     3.110320
      px      :     1.045303
      py      :     1.033667
      dz2     :     0.010161  d :     0.084481
      dxz     :     0.020709
      dyz     :     0.009327
      dx2y2   :     0.021803
      dxy     :     0.022481

 61 H s       :     0.857098  s :     0.857098
      pz      :     0.016810  p :     0.041995
      px      :     0.007416
      py      :     0.017768

 62 C s       :     2.902665  s :     2.902665
      pz      :     1.011826  p :     3.058227
      px      :     1.029656
      py      :     1.016744
      dz2     :     0.018099  d :     0.117618
      dxz     :     0.027929
      dyz     :     0.015466
      dx2y2   :     0.027294
      dxy     :     0.028829

 63 C s       :     2.908856  s :     2.908856
      pz      :     1.048483  p :     3.045024
      px      :     0.940414
      py      :     1.056127
      dz2     :     0.018250  d :     0.112963
      dxz     :     0.025397
      dyz     :     0.014213
      dx2y2   :     0.029020
      dxy     :     0.026083

 64 C s       :     2.909391  s :     2.909391
      pz      :     1.044199  p :     3.036479
      px      :     0.996617
      py      :     0.995664
      dz2     :     0.021448  d :     0.114361
      dxz     :     0.016619
      dyz     :     0.027952
      dx2y2   :     0.022911
      dxy     :     0.025431

 65 C s       :     2.880900  s :     2.880900
      pz      :     1.059781  p :     3.152848
      px      :     1.062148
      py      :     1.030920
      dz2     :     0.017005  d :     0.083065
      dxz     :     0.015189
      dyz     :     0.016908
      dx2y2   :     0.020610
      dxy     :     0.013353

 66 H s       :     0.885663  s :     0.885663
      pz      :     0.007382  p :     0.038485
      px      :     0.021703
      py      :     0.009400

 67 H s       :     0.878415  s :     0.878415
      pz      :     0.019240  p :     0.038408
      px      :     0.008829
      py      :     0.010340

 68 C s       :     2.880973  s :     2.880973
      pz      :     1.054760  p :     3.153854
      px      :     1.028838
      py      :     1.070256
      dz2     :     0.018222  d :     0.082528
      dxz     :     0.021911
      dyz     :     0.008195
      dx2y2   :     0.020036
      dxy     :     0.014164

 69 H s       :     0.885075  s :     0.885075
      pz      :     0.006981  p :     0.038519
      px      :     0.006870
      py      :     0.024668

 70 H s       :     0.879591  s :     0.879591
      pz      :     0.019972  p :     0.038368
      px      :     0.009713
      py      :     0.008683

 71 C s       :     2.892729  s :     2.892729
      pz      :     1.039977  p :     3.102495
      px      :     1.026992
      py      :     1.035526
      dz2     :     0.011703  d :     0.083739
      dxz     :     0.010623
      dyz     :     0.021109
      dx2y2   :     0.019665
      dxy     :     0.020640

 72 H s       :     0.852749  s :     0.852749
      pz      :     0.020076  p :     0.042240
      px      :     0.016852
      py      :     0.005312

 73 C s       :     2.865442  s :     2.865442
      pz      :     1.043330  p :     3.069731
      px      :     0.997014
      py      :     1.029386
      dz2     :     0.025624  d :     0.105659
      dxz     :     0.013078
      dyz     :     0.042073
      dx2y2   :     0.012683
      dxy     :     0.012202

 74 C s       :     2.871272  s :     2.871272
      pz      :     0.974960  p :     3.057333
      px      :     1.028845
      py      :     1.053528
      dz2     :     0.009508  d :     0.099888
      dxz     :     0.011705
      dyz     :     0.014890
      dx2y2   :     0.031151
      dxy     :     0.032634

 75 C s       :     2.907402  s :     2.907402
      pz      :     0.945888  p :     3.037049
      px      :     1.072010
      py      :     1.019151
      dz2     :     0.032870  d :     0.114374
      dxz     :     0.034726
      dyz     :     0.016751
      dx2y2   :     0.015130
      dxy     :     0.014898

 76 C s       :     2.891957  s :     2.891957
      pz      :     1.022072  p :     3.105612
      px      :     1.029189
      py      :     1.054352
      dz2     :     0.016160  d :     0.083683
      dxz     :     0.014678
      dyz     :     0.019505
      dx2y2   :     0.016269
      dxy     :     0.017071

 77 H s       :     0.855285  s :     0.855285
      pz      :     0.007772  p :     0.042546
      px      :     0.014229
      py      :     0.020546

 78 C s       :     2.908616  s :     2.908616
      pz      :     0.962324  p :     3.046513
      px      :     1.023921
      py      :     1.060268
      dz2     :     0.032157  d :     0.114753
      dxz     :     0.014507
      dyz     :     0.038678
      dx2y2   :     0.014246
      dxy     :     0.015164

 79 C s       :     2.881154  s :     2.881154
      pz      :     1.083318  p :     3.154076
      px      :     1.044173
      py      :     1.026586
      dz2     :     0.019233  d :     0.082582
      dxz     :     0.012809
      dyz     :     0.011675
      dx2y2   :     0.016878
      dxy     :     0.021989

 80 H s       :     0.885031  s :     0.885031
      pz      :     0.011057  p :     0.038510
      px      :     0.016556
      py      :     0.010897

 81 C s       :     2.892098  s :     2.892098
      pz      :     1.061546  p :     3.109573
      px      :     1.000536
      py      :     1.047490
      dz2     :     0.021906  d :     0.083461
      dxz     :     0.007494
      dyz     :     0.028725
      dx2y2   :     0.013277
      dxy     :     0.012060

 82 H s       :     0.856761  s :     0.856761
      pz      :     0.022658  p :     0.042042
      px      :     0.008281
      py      :     0.011103

 83 C s       :     2.903622  s :     2.903622
      pz      :     1.018999  p :     3.044319
      px      :     1.053878
      py      :     0.971441
      dz2     :     0.020329  d :     0.117318
      dxz     :     0.016387
      dyz     :     0.028627
      dx2y2   :     0.027247
      dxy     :     0.024728

 84 C s       :     2.907244  s :     2.907244
      pz      :     0.987884  p :     3.034045
      px      :     1.028080
      py      :     1.018081
      dz2     :     0.030345  d :     0.114700
      dxz     :     0.036520
      dyz     :     0.018091
      dx2y2   :     0.014978
      dxy     :     0.014766

 85 C s       :     2.904228  s :     2.904228
      pz      :     1.106923  p :     3.053547
      px      :     1.012960
      py      :     0.933664
      dz2     :     0.031325  d :     0.116666
      dxz     :     0.016273
      dyz     :     0.037325
      dx2y2   :     0.017697
      dxy     :     0.014047

 86 C s       :     2.891146  s :     2.891146
      pz      :     1.064435  p :     3.108335
      px      :     1.038200
      py      :     1.005700
      dz2     :     0.020545  d :     0.083643
      dxz     :     0.026143
      dyz     :     0.008786
      dx2y2   :     0.013932
      dxy     :     0.014238

 87 H s       :     0.855851  s :     0.855851
      pz      :     0.026012  p :     0.042039
      px      :     0.007144
      py      :     0.008884

 88 C s       :     2.908296  s :     2.908296
      pz      :     0.970586  p :     3.041745
      px      :     1.013810
      py      :     1.057348
      dz2     :     0.031591  d :     0.115047
      dxz     :     0.014321
      dyz     :     0.039671
      dx2y2   :     0.014474
      dxy     :     0.014990

 89 C s       :     2.880409  s :     2.880409
      pz      :     1.075192  p :     3.153614
      px      :     1.047521
      py      :     1.030901
      dz2     :     0.024275  d :     0.083018
      dxz     :     0.009008
      dyz     :     0.011143
      dx2y2   :     0.016291
      dxy     :     0.022301

 90 C s       :     2.892096  s :     2.892096
      pz      :     1.061767  p :     3.110156
      px      :     1.000740
      py      :     1.047649
      dz2     :     0.021540  d :     0.083537
      dxz     :     0.007315
      dyz     :     0.028693
      dx2y2   :     0.013809
      dxy     :     0.012180

 91 H s       :     0.856905  s :     0.856905
      pz      :     0.023637  p :     0.042022
      px      :     0.007821
      py      :     0.010564

 92 C s       :     2.891359  s :     2.891359
      pz      :     1.056989  p :     3.108847
      px      :     1.045318
      py      :     1.006540
      dz2     :     0.022551  d :     0.083530
      dxz     :     0.025704
      dyz     :     0.011687
      dx2y2   :     0.012205
      dxy     :     0.011382

 93 H s       :     0.855842  s :     0.855842
      pz      :     0.019416  p :     0.042054
      px      :     0.014700
      py      :     0.007937

 94 C s       :     2.904591  s :     2.904591
      pz      :     1.101794  p :     3.047017
      px      :     0.949968
      py      :     0.995256
      dz2     :     0.030835  d :     0.116796
      dxz     :     0.034971
      dyz     :     0.018689
      dx2y2   :     0.016036
      dxy     :     0.016266

 95 H s       :     0.885049  s :     0.885049
      pz      :     0.007735  p :     0.039718
      px      :     0.019514
      py      :     0.012468

 96 H s       :     0.886083  s :     0.886083
      pz      :     0.007294  p :     0.038467
      px      :     0.019340
      py      :     0.011833

 97 H s       :     0.878802  s :     0.878802
      pz      :     0.024995  p :     0.038381
      px      :     0.006799
      py      :     0.006587

 98 H s       :     0.879301  s :     0.879301
      pz      :     0.023787  p :     0.038338
      px      :     0.007973
      py      :     0.006578

 99 C s       :     2.873103  s :     2.873103
      pz      :     0.986561  p :     3.023194
      px      :     1.030667
      py      :     1.005967
      dz2     :     0.010592  d :     0.094350
      dxz     :     0.015598
      dyz     :     0.012437
      dx2y2   :     0.029015
      dxy     :     0.026708

100 C s       :     2.865746  s :     2.865746
      pz      :     1.038983  p :     3.077994
      px      :     1.029515
      py      :     1.009495
      dz2     :     0.010448  d :     0.093485
      dxz     :     0.014268
      dyz     :     0.011673
      dx2y2   :     0.028534
      dxy     :     0.028563


SPIN
  0 Cls       :    -0.000000  s :    -0.000000
      pz      :    -0.000000  p :    -0.000000
      px      :    -0.000000
      py      :     0.000000
      dz2     :    -0.000000  d :    -0.000000
      dxz     :    -0.000000
      dyz     :    -0.000000
      dx2y2   :    -0.000000
      dxy     :    -0.000000

  1 Cls       :     0.000000  s :     0.000000
      pz      :     0.000000  p :     0.000000
      px      :     0.000000
      py      :     0.000000
      dz2     :     0.000000  d :     0.000000
      dxz     :     0.000000
      dyz     :     0.000000
      dx2y2   :     0.000000
      dxy     :     0.000000

  2 Cls       :    -0.000000  s :    -0.000000
      pz      :     0.000000  p :    -0.000000
      px      :    -0.000000
      py      :    -0.000000
      dz2     :    -0.000000  d :    -0.000000
      dxz     :    -0.000000
      dyz     :    -0.000000
      dx2y2   :    -0.000000
      dxy     :    -0.000000

  3 Cls       :    -0.000000  s :    -0.000000
      pz      :    -0.000000  p :    -0.000000
      px      :    -0.000000
      py      :     0.000000
      dz2     :    -0.000000  d :    -0.000000
      dxz     :    -0.000000
      dyz     :    -0.000000
      dx2y2   :    -0.000000
      dxy     :    -0.000000

  4 Cls       :    -0.000000  s :    -0.000000
      pz      :     0.000000  p :     0.000000
      px      :     0.000000
      py      :     0.000000
      dz2     :     0.000000  d :     0.000000
      dxz     :     0.000000
      dyz     :     0.000000
      dx2y2   :     0.000000
      dxy     :     0.000000

  5 Cls       :    -0.000000  s :    -0.000000
      pz      :     0.000000  p :     0.000000
      px      :     0.000000
      py      :     0.000000
      dz2     :     0.000000  d :     0.000000
      dxz     :     0.000000
      dyz     :    -0.000000
      dx2y2   :     0.000000
      dxy     :     0.000000

  6 Cls       :     0.000000  s :     0.000000
      pz      :    -0.000000  p :    -0.000000
      px      :    -0.000000
      py      :    -0.000000
      dz2     :    -0.000000  d :    -0.000000
      dxz     :     0.000000
      dyz     :    -0.000000
      dx2y2   :    -0.000000
      dxy     :    -0.000000

  7 Cls       :    -0.000000  s :    -0.000000
      pz      :     0.000000  p :     0.000000
      px      :     0.000000
      py      :    -0.000000
      dz2     :     0.000000  d :     0.000000
      dxz     :     0.000000
      dyz     :     0.000000
      dx2y2   :     0.000000
      dxy     :     0.000000

  8 Cls       :     0.000000  s :     0.000000
      pz      :     0.000000  p :     0.000000
      px      :    -0.000000
      py      :     0.000000
      dz2     :     0.000000  d :     0.000000
      dxz     :     0.000000
      dyz     :     0.000000
      dx2y2   :     0.000000
      dxy     :     0.000000

  9 Cls       :    -0.000000  s :    -0.000000
      pz      :    -0.000000  p :     0.000000
      px      :     0.000000
      py      :     0.000000
      dz2     :     0.000000  d :     0.000000
      dxz     :     0.000000
      dyz     :     0.000000
      dx2y2   :     0.000000
      dxy     :     0.000000

 10 Cls       :     0.000000  s :     0.000000
      pz      :     0.000000  p :    -0.000000
      px      :    -0.000000
      py      :    -0.000000
      dz2     :     0.000000  d :    -0.000000
      dxz     :    -0.000000
      dyz     :    -0.000000
      dx2y2   :    -0.000000
      dxy     :    -0.000000

 11 Cls       :     0.000000  s :     0.000000
      pz      :    -0.000000  p :    -0.000000
      px      :    -0.000000
      py      :     0.000000
      dz2     :    -0.000000  d :    -0.000000
      dxz     :    -0.000000
      dyz     :    -0.000000
      dx2y2   :    -0.000000
      dxy     :    -0.000000

 12 Cls       :    -0.000000  s :    -0.000000
      pz      :     0.000000  p :     0.000000
      px      :     0.000000
      py      :    -0.000000
      dz2     :     0.000000  d :     0.000000
      dxz     :    -0.000000
      dyz     :    -0.000000
      dx2y2   :     0.000000
      dxy     :     0.000000

 13 Cls       :     0.000000  s :     0.000000
      pz      :     0.000000  p :    -0.000000
      px      :    -0.000000
      py      :    -0.000000
      dz2     :     0.000000  d :    -0.000000
      dxz     :    -0.000000
      dyz     :    -0.000000
      dx2y2   :    -0.000000
      dxy     :    -0.000000

 14 N s       :     0.000000  s :     0.000000
      pz      :     0.000000  p :     0.000000
      px      :     0.000000
      py      :    -0.000000
      dz2     :    -0.000000  d :    -0.000000
      dxz     :    -0.000000
      dyz     :    -0.000000
      dx2y2   :    -0.000000
      dxy     :    -0.000000

 15 N s       :    -0.000000  s :    -0.000000
      pz      :    -0.000000  p :    -0.000000
      px      :    -0.000000
      py      :     0.000000
      dz2     :     0.000000  d :     0.000000
      dxz     :     0.000000
      dyz     :     0.000000
      dx2y2   :     0.000000
      dxy     :     0.000000

 16 N s       :    -0.000000  s :    -0.000000
      pz      :    -0.000000  p :    -0.000000
      px      :    -0.000000
      py      :     0.000000
      dz2     :     0.000000  d :     0.000000
      dxz     :     0.000000
      dyz     :     0.000000
      dx2y2   :     0.000000
      dxy     :     0.000000

 17 C s       :    -0.000000  s :    -0.000000
      pz      :    -0.000000  p :    -0.000000
      px      :    -0.000000
      py      :    -0.000000
      dz2     :     0.000000  d :     0.000000
      dxz     :     0.000000
      dyz     :     0.000000
      dx2y2   :     0.000000
      dxy     :     0.000000

 18 C s       :     0.000000  s :     0.000000
      pz      :     0.000000  p :     0.000000
      px      :     0.000000
      py      :     0.000000
      dz2     :    -0.000000  d :    -0.000000
      dxz     :    -0.000000
      dyz     :    -0.000000
      dx2y2   :     0.000000
      dxy     :    -0.000000

 19 C s       :    -0.000000  s :    -0.000000
      pz      :    -0.000000  p :    -0.000000
      px      :    -0.000000
      py      :    -0.000000
      dz2     :     0.000000  d :     0.000000
      dxz     :     0.000000
      dyz     :     0.000000
      dx2y2   :     0.000000
      dxy     :     0.000000

 20 C s       :     0.000000  s :     0.000000
      pz      :     0.000000  p :     0.000000
      px      :     0.000000
      py      :     0.000000
      dz2     :    -0.000000  d :    -0.000000
      dxz     :    -0.000000
      dyz     :    -0.000000
      dx2y2   :    -0.000000
      dxy     :    -0.000000

 21 C s       :    -0.000000  s :    -0.000000
      pz      :     0.000000  p :     0.000000
      px      :     0.000000
      py      :     0.000000
      dz2     :    -0.000000  d :    -0.000000
      dxz     :    -0.000000
      dyz     :    -0.000000
      dx2y2   :    -0.000000
      dxy     :    -0.000000

 22 C s       :     0.000000  s :     0.000000
      pz      :     0.000000  p :     0.000000
      px      :     0.000000
      py      :     0.000000
      dz2     :    -0.000000  d :    -0.000000
      dxz     :    -0.000000
      dyz     :    -0.000000
      dx2y2   :     0.000000
      dxy     :    -0.000000

 23 H s       :     0.000000  s :     0.000000
      pz      :     0.000000  p :     0.000000
      px      :     0.000000
      py      :     0.000000

 24 C s       :    -0.000000  s :    -0.000000
      pz      :    -0.000000  p :    -0.000000
      px      :    -0.000000
      py      :    -0.000000
      dz2     :     0.000000  d :     0.000000
      dxz     :     0.000000
      dyz     :     0.000000
      dx2y2   :     0.000000
      dxy     :     0.000000

 25 C s       :    -0.000000  s :    -0.000000
      pz      :    -0.000000  p :    -0.000000
      px      :    -0.000000
      py      :    -0.000000
      dz2     :     0.000000  d :     0.000000
      dxz     :     0.000000
      dyz     :    -0.000000
      dx2y2   :     0.000000
      dxy     :    -0.000000

 26 H s       :     0.000000  s :     0.000000
      pz      :    -0.000000  p :    -0.000000
      px      :     0.000000
      py      :    -0.000000

 27 C s       :     0.000000  s :     0.000000
      pz      :     0.000000  p :     0.000000
      px      :    -0.000000
      py      :     0.000000
      dz2     :    -0.000000  d :    -0.000000
      dxz     :    -0.000000
      dyz     :    -0.000000
      dx2y2   :    -0.000000
      dxy     :    -0.000000

 28 C s       :    -0.000000  s :    -0.000000
      pz      :    -0.000000  p :    -0.000000
      px      :    -0.000000
      py      :    -0.000000
      dz2     :     0.000000  d :     0.000000
      dxz     :     0.000000
      dyz     :     0.000000
      dx2y2   :     0.000000
      dxy     :     0.000000

 29 C s       :    -0.000000  s :    -0.000000
      pz      :    -0.000000  p :    -0.000000
      px      :     0.000000
      py      :    -0.000000
      dz2     :    -0.000000  d :     0.000000
      dxz     :     0.000000
      dyz     :     0.000000
      dx2y2   :     0.000000
      dxy     :    -0.000000

 30 C s       :     0.000000  s :     0.000000
      pz      :     0.000000  p :     0.000000
      px      :     0.000000
      py      :     0.000000
      dz2     :    -0.000000  d :    -0.000000
      dxz     :    -0.000000
      dyz     :    -0.000000
      dx2y2   :    -0.000000
      dxy     :    -0.000000

 31 C s       :     0.000000  s :     0.000000
      pz      :     0.000000  p :     0.000000
      px      :     0.000000
      py      :     0.000000
      dz2     :    -0.000000  d :    -0.000000
      dxz     :    -0.000000
      dyz     :    -0.000000
      dx2y2   :    -0.000000
      dxy     :    -0.000000

 32 H s       :    -0.000000  s :    -0.000000
      pz      :     0.000000  p :     0.000000
      px      :     0.000000
      py      :     0.000000

 33 C s       :     0.000000  s :     0.000000
      pz      :     0.000000  p :     0.000000
      px      :     0.000000
      py      :     0.000000
      dz2     :    -0.000000  d :    -0.000000
      dxz     :    -0.000000
      dyz     :    -0.000000
      dx2y2   :    -0.000000
      dxy     :    -0.000000

 34 C s       :    -0.000000  s :    -0.000000
      pz      :    -0.000000  p :    -0.000000
      px      :     0.000000
      py      :     0.000000
      dz2     :     0.000000  d :     0.000000
      dxz     :     0.000000
      dyz     :     0.000000
      dx2y2   :     0.000000
      dxy     :     0.000000

 35 H s       :     0.000000  s :     0.000000
      pz      :    -0.000000  p :     0.000000
      px      :     0.000000
      py      :     0.000000

 36 C s       :    -0.000000  s :    -0.000000
      pz      :     0.000000  p :     0.000000
      px      :     0.000000
      py      :     0.000000
      dz2     :    -0.000000  d :    -0.000000
      dxz     :    -0.000000
      dyz     :    -0.000000
      dx2y2   :    -0.000000
      dxy     :    -0.000000

 37 H s       :    -0.000000  s :    -0.000000
      pz      :     0.000000  p :     0.000000
      px      :     0.000000
      py      :     0.000000

 38 C s       :    -0.000000  s :    -0.000000
      pz      :    -0.000000  p :    -0.000000
      px      :    -0.000000
      py      :    -0.000000
      dz2     :     0.000000  d :     0.000000
      dxz     :     0.000000
      dyz     :     0.000000
      dx2y2   :     0.000000
      dxy     :    -0.000000

 39 H s       :     0.000000  s :     0.000000
      pz      :    -0.000000  p :    -0.000000
      px      :    -0.000000
      py      :    -0.000000

 40 C s       :    -0.000000  s :    -0.000000
      pz      :    -0.000000  p :    -0.000000
      px      :    -0.000000
      py      :    -0.000000
      dz2     :     0.000000  d :     0.000000
      dxz     :     0.000000
      dyz     :     0.000000
      dx2y2   :    -0.000000
      dxy     :     0.000000

 41 C s       :    -0.000000  s :    -0.000000
      pz      :    -0.000000  p :    -0.000000
      px      :    -0.000000
      py      :    -0.000000
      dz2     :     0.000000  d :     0.000000
      dxz     :     0.000000
      dyz     :     0.000000
      dx2y2   :     0.000000
      dxy     :     0.000000

 42 C s       :     0.000000  s :     0.000000
      pz      :     0.000000  p :     0.000000
      px      :     0.000000
      py      :     0.000000
      dz2     :    -0.000000  d :    -0.000000
      dxz     :    -0.000000
      dyz     :    -0.000000
      dx2y2   :    -0.000000
      dxy     :    -0.000000

 43 H s       :    -0.000000  s :    -0.000000
      pz      :     0.000000  p :     0.000000
      px      :    -0.000000
      py      :     0.000000

 44 C s       :     0.000000  s :     0.000000
      pz      :     0.000000  p :     0.000000
      px      :     0.000000
      py      :     0.000000
      dz2     :    -0.000000  d :    -0.000000
      dxz     :    -0.000000
      dyz     :    -0.000000
      dx2y2   :     0.000000
      dxy     :    -0.000000

 45 C s       :    -0.000000  s :    -0.000000
      pz      :    -0.000000  p :    -0.000000
      px      :    -0.000000
      py      :    -0.000000
      dz2     :     0.000000  d :     0.000000
      dxz     :     0.000000
      dyz     :     0.000000
      dx2y2   :     0.000000
      dxy     :     0.000000

 46 C s       :     0.000000  s :     0.000000
      pz      :    -0.000000  p :    -0.000000
      px      :    -0.000000
      py      :    -0.000000
      dz2     :     0.000000  d :     0.000000
      dxz     :     0.000000
      dyz     :     0.000000
      dx2y2   :    -0.000000
      dxy     :     0.000000

 47 H s       :     0.000000  s :     0.000000
      pz      :    -0.000000  p :    -0.000000
      px      :    -0.000000
      py      :    -0.000000

 48 C s       :     0.000000  s :     0.000000
      pz      :     0.000000  p :     0.000000
      px      :     0.000000
      py      :    -0.000000
      dz2     :    -0.000000  d :    -0.000000
      dxz     :    -0.000000
      dyz     :    -0.000000
      dx2y2   :     0.000000
      dxy     :    -0.000000

 49 C s       :    -0.000000  s :    -0.000000
      pz      :    -0.000000  p :    -0.000000
      px      :    -0.000000
      py      :    -0.000000
      dz2     :     0.000000  d :     0.000000
      dxz     :     0.000000
      dyz     :     0.000000
      dx2y2   :     0.000000
      dxy     :     0.000000

 50 H s       :     0.000000  s :     0.000000
      pz      :    -0.000000  p :    -0.000000
      px      :     0.000000
      py      :    -0.000000

 51 C s       :     0.000000  s :     0.000000
      pz      :     0.000000  p :     0.000000
      px      :     0.000000
      py      :     0.000000
      dz2     :    -0.000000  d :    -0.000000
      dxz     :    -0.000000
      dyz     :    -0.000000
      dx2y2   :     0.000000
      dxy     :     0.000000

 52 C s       :     0.000000  s :     0.000000
      pz      :    -0.000000  p :     0.000000
      px      :    -0.000000
      py      :     0.000000
      dz2     :    -0.000000  d :    -0.000000
      dxz     :    -0.000000
      dyz     :    -0.000000
      dx2y2   :    -0.000000
      dxy     :    -0.000000

 53 C s       :     0.000000  s :     0.000000
      pz      :     0.000000  p :     0.000000
      px      :    -0.000000
      py      :     0.000000
      dz2     :    -0.000000  d :    -0.000000
      dxz     :     0.000000
      dyz     :    -0.000000
      dx2y2   :    -0.000000
      dxy     :    -0.000000

 54 C s       :     0.000000  s :     0.000000
      pz      :     0.000000  p :     0.000000
      px      :     0.000000
      py      :     0.000000
      dz2     :    -0.000000  d :    -0.000000
      dxz     :    -0.000000
      dyz     :     0.000000
      dx2y2   :    -0.000000
      dxy     :    -0.000000

 55 C s       :     0.000000  s :     0.000000
      pz      :    -0.000000  p :    -0.000000
      px      :    -0.000000
      py      :    -0.000000
      dz2     :     0.000000  d :     0.000000
      dxz     :     0.000000
      dyz     :     0.000000
      dx2y2   :    -0.000000
      dxy     :     0.000000

 56 C s       :    -0.000000  s :    -0.000000
      pz      :    -0.000000  p :    -0.000000
      px      :     0.000000
      py      :    -0.000000
      dz2     :     0.000000  d :     0.000000
      dxz     :     0.000000
      dyz     :     0.000000
      dx2y2   :     0.000000
      dxy     :     0.000000

 57 H s       :     0.000000  s :     0.000000
      pz      :    -0.000000  p :    -0.000000
      px      :    -0.000000
      py      :    -0.000000

 58 C s       :     0.000000  s :     0.000000
      pz      :     0.000000  p :     0.000000
      px      :     0.000000
      py      :     0.000000
      dz2     :    -0.000000  d :    -0.000000
      dxz     :    -0.000000
      dyz     :    -0.000000
      dx2y2   :    -0.000000
      dxy     :    -0.000000

 59 H s       :    -0.000000  s :    -0.000000
      pz      :     0.000000  p :     0.000000
      px      :     0.000000
      py      :     0.000000

 60 C s       :     0.000000  s :     0.000000
      pz      :    -0.000000  p :    -0.000000
      px      :    -0.000000
      py      :    -0.000000
      dz2     :     0.000000  d :     0.000000
      dxz     :     0.000000
      dyz     :     0.000000
      dx2y2   :     0.000000
      dxy     :     0.000000

 61 H s       :     0.000000  s :     0.000000
      pz      :    -0.000000  p :    -0.000000
      px      :    -0.000000
      py      :    -0.000000

 62 C s       :     0.000000  s :     0.000000
      pz      :     0.000000  p :     0.000000
      px      :     0.000000
      py      :     0.000000
      dz2     :    -0.000000  d :    -0.000000
      dxz     :    -0.000000
      dyz     :    -0.000000
      dx2y2   :    -0.000000
      dxy     :    -0.000000

 63 C s       :     0.000000  s :     0.000000
      pz      :     0.000000  p :     0.000000
      px      :     0.000000
      py      :     0.000000
      dz2     :    -0.000000  d :    -0.000000
      dxz     :    -0.000000
      dyz     :    -0.000000
      dx2y2   :    -0.000000
      dxy     :     0.000000

 64 C s       :    -0.000000  s :    -0.000000
      pz      :    -0.000000  p :    -0.000000
      px      :    -0.000000
      py      :    -0.000000
      dz2     :     0.000000  d :     0.000000
      dxz     :     0.000000
      dyz     :     0.000000
      dx2y2   :    -0.000000
      dxy     :     0.000000

 65 C s       :     0.000000  s :     0.000000
      pz      :     0.000000  p :     0.000000
      px      :     0.000000
      py      :    -0.000000
      dz2     :     0.000000  d :    -0.000000
      dxz     :    -0.000000
      dyz     :    -0.000000
      dx2y2   :    -0.000000
      dxy     :    -0.000000

 66 H s       :     0.000000  s :     0.000000
      pz      :     0.000000  p :     0.000000
      px      :    -0.000000
      py      :     0.000000

 67 H s       :    -0.000000  s :    -0.000000
      pz      :    -0.000000  p :    -0.000000
      px      :    -0.000000
      py      :     0.000000

 68 C s       :    -0.000000  s :    -0.000000
      pz      :     0.000000  p :     0.000000
      px      :     0.000000
      py      :     0.000000
      dz2     :    -0.000000  d :    -0.000000
      dxz     :    -0.000000
      dyz     :    -0.000000
      dx2y2   :    -0.000000
      dxy     :    -0.000000

 69 H s       :    -0.000000  s :    -0.000000
      pz      :    -0.000000  p :    -0.000000
      px      :     0.000000
      py      :    -0.000000

 70 H s       :    -0.000000  s :    -0.000000
      pz      :    -0.000000  p :    -0.000000
      px      :     0.000000
      py      :     0.000000

 71 C s       :    -0.000000  s :    -0.000000
      pz      :     0.000000  p :     0.000000
      px      :     0.000000
      py      :     0.000000
      dz2     :    -0.000000  d :    -0.000000
      dxz     :    -0.000000
      dyz     :    -0.000000
      dx2y2   :    -0.000000
      dxy     :    -0.000000

 72 H s       :    -0.000000  s :    -0.000000
      pz      :     0.000000  p :     0.000000
      px      :     0.000000
      py      :    -0.000000

 73 C s       :    -0.000000  s :    -0.000000
      pz      :     0.000000  p :    -0.000000
      px      :    -0.000000
      py      :    -0.000000
      dz2     :     0.000000  d :     0.000000
      dxz     :     0.000000
      dyz     :     0.000000
      dx2y2   :     0.000000
      dxy     :     0.000000

 74 C s       :    -0.000000  s :    -0.000000
      pz      :    -0.000000  p :    -0.000000
      px      :    -0.000000
      py      :    -0.000000
      dz2     :     0.000000  d :     0.000000
      dxz     :     0.000000
      dyz     :    -0.000000
      dx2y2   :     0.000000
      dxy     :     0.000000

 75 C s       :    -0.000000  s :    -0.000000
      pz      :    -0.000000  p :    -0.000000
      px      :    -0.000000
      py      :    -0.000000
      dz2     :     0.000000  d :     0.000000
      dxz     :     0.000000
      dyz     :     0.000000
      dx2y2   :     0.000000
      dxy     :     0.000000

 76 C s       :     0.000000  s :     0.000000
      pz      :     0.000000  p :     0.000000
      px      :     0.000000
      py      :     0.000000
      dz2     :    -0.000000  d :    -0.000000
      dxz     :    -0.000000
      dyz     :    -0.000000
      dx2y2   :    -0.000000
      dxy     :    -0.000000

 77 H s       :    -0.000000  s :    -0.000000
      pz      :     0.000000  p :     0.000000
      px      :     0.000000
      py      :     0.000000

 78 C s       :     0.000000  s :     0.000000
      pz      :     0.000000  p :     0.000000
      px      :     0.000000
      py      :     0.000000
      dz2     :    -0.000000  d :    -0.000000
      dxz     :    -0.000000
      dyz     :     0.000000
      dx2y2   :     0.000000
      dxy     :    -0.000000

 79 C s       :     0.000000  s :     0.000000
      pz      :     0.000000  p :     0.000000
      px      :     0.000000
      py      :     0.000000
      dz2     :     0.000000  d :     0.000000
      dxz     :     0.000000
      dyz     :     0.000000
      dx2y2   :     0.000000
      dxy     :     0.000000

 80 H s       :     0.000000  s :     0.000000
      pz      :    -0.000000  p :    -0.000000
      px      :    -0.000000
      py      :    -0.000000

 81 C s       :    -0.000000  s :    -0.000000
      pz      :     0.000000  p :    -0.000000
      px      :    -0.000000
      py      :    -0.000000
      dz2     :     0.000000  d :     0.000000
      dxz     :     0.000000
      dyz     :     0.000000
      dx2y2   :     0.000000
      dxy     :     0.000000

 82 H s       :     0.000000  s :     0.000000
      pz      :    -0.000000  p :    -0.000000
      px      :    -0.000000
      py      :     0.000000

 83 C s       :    -0.000000  s :    -0.000000
      pz      :    -0.000000  p :    -0.000000
      px      :    -0.000000
      py      :    -0.000000
      dz2     :     0.000000  d :     0.000000
      dxz     :     0.000000
      dyz     :     0.000000
      dx2y2   :     0.000000
      dxy     :     0.000000

 84 C s       :    -0.000000  s :    -0.000000
      pz      :    -0.000000  p :    -0.000000
      px      :    -0.000000
      py      :    -0.000000
      dz2     :     0.000000  d :     0.000000
      dxz     :     0.000000
      dyz     :     0.000000
      dx2y2   :     0.000000
      dxy     :     0.000000

 85 C s       :     0.000000  s :     0.000000
      pz      :     0.000000  p :     0.000000
      px      :     0.000000
      py      :     0.000000
      dz2     :    -0.000000  d :    -0.000000
      dxz     :    -0.000000
      dyz     :     0.000000
      dx2y2   :    -0.000000
      dxy     :    -0.000000

 86 C s       :    -0.000000  s :    -0.000000
      pz      :     0.000000  p :     0.000000
      px      :     0.000000
      py      :     0.000000
      dz2     :    -0.000000  d :    -0.000000
      dxz     :    -0.000000
      dyz     :    -0.000000
      dx2y2   :    -0.000000
      dxy     :    -0.000000

 87 H s       :    -0.000000  s :    -0.000000
      pz      :    -0.000000  p :     0.000000
      px      :     0.000000
      py      :     0.000000

 88 C s       :     0.000000  s :     0.000000
      pz      :     0.000000  p :     0.000000
      px      :     0.000000
      py      :     0.000000
      dz2     :    -0.000000  d :    -0.000000
      dxz     :    -0.000000
      dyz     :    -0.000000
      dx2y2   :     0.000000
      dxy     :    -0.000000

 89 C s       :     0.000000  s :     0.000000
      pz      :     0.000000  p :     0.000000
      px      :     0.000000
      py      :     0.000000
      dz2     :    -0.000000  d :    -0.000000
      dxz     :    -0.000000
      dyz     :    -0.000000
      dx2y2   :    -0.000000
      dxy     :    -0.000000

 90 C s       :    -0.000000  s :    -0.000000
      pz      :     0.000000  p :    -0.000000
      px      :    -0.000000
      py      :    -0.000000
      dz2     :     0.000000  d :     0.000000
      dxz     :     0.000000
      dyz     :     0.000000
      dx2y2   :     0.000000
      dxy     :     0.000000

 91 H s       :     0.000000  s :     0.000000
      pz      :    -0.000000  p :    -0.000000
      px      :    -0.000000
      py      :     0.000000

 92 C s       :     0.000000  s :     0.000000
      pz      :     0.000000  p :     0.000000
      px      :     0.000000
      py      :     0.000000
      dz2     :    -0.000000  d :    -0.000000
      dxz     :    -0.000000
      dyz     :    -0.000000
      dx2y2   :    -0.000000
      dxy     :    -0.000000

 93 H s       :    -0.000000  s :    -0.000000
      pz      :     0.000000  p :     0.000000
      px      :     0.000000
      py      :     0.000000

 94 C s       :     0.000000  s :     0.000000
      pz      :    -0.000000  p :    -0.000000
      px      :    -0.000000
      py      :    -0.000000
      dz2     :     0.000000  d :     0.000000
      dxz     :     0.000000
      dyz     :     0.000000
      dx2y2   :     0.000000
      dxy     :     0.000000

 95 H s       :     0.000000  s :     0.000000
      pz      :     0.000000  p :    -0.000000
      px      :    -0.000000
      py      :    -0.000000

 96 H s       :     0.000000  s :     0.000000
      pz      :    -0.000000  p :     0.000000
      px      :     0.000000
      py      :     0.000000

 97 H s       :     0.000000  s :     0.000000
      pz      :     0.000000  p :     0.000000
      px      :    -0.000000
      py      :     0.000000

 98 H s       :     0.000000  s :     0.000000
      pz      :     0.000000  p :     0.000000
      px      :     0.000000
      py      :    -0.000000

 99 C s       :    -0.000000  s :    -0.000000
      pz      :    -0.000000  p :    -0.000000
      px      :    -0.000000
      py      :    -0.000000
      dz2     :     0.000000  d :     0.000000
      dxz     :     0.000000
      dyz     :     0.000000
      dx2y2   :     0.000000
      dxy     :     0.000000

100 C s       :     0.000000  s :     0.000000
      pz      :     0.000000  p :     0.000000
      px      :     0.000000
      py      :     0.000000
      dz2     :    -0.000000  d :    -0.000000
      dxz     :    -0.000000
      dyz     :    -0.000000
      dx2y2   :    -0.000000
      dxy     :    -0.000000



                      *****************************
                      * MAYER POPULATION ANALYSIS *
                      *****************************

  NA   - Mulliken gross atomic population
  ZA   - Total nuclear charge
  QA   - Mulliken gross atomic charge
  VA   - Mayer's total valence
  BVA  - Mayer's bonded valence
  FA   - Mayer's free valence

  ATOM       NA         ZA         QA         VA         BVA        FA
  0 Cl    16.9906    17.0000     0.0094     1.1456     1.1456    -0.0000
  1 Cl    17.0031    17.0000    -0.0031     1.1638     1.1638     0.0000
  2 Cl    16.9859    17.0000     0.0141     1.1452     1.1452     0.0000
  3 Cl    16.9705    17.0000     0.0295     1.1496     1.1496     0.0000
  4 Cl    16.9895    17.0000     0.0105     1.1415     1.1415    -0.0000
  5 Cl    16.9890    17.0000     0.0110     1.1350     1.1350    -0.0000
  6 Cl    16.9802    17.0000     0.0198     1.1362     1.1362    -0.0000
  7 Cl    16.9863    17.0000     0.0137     1.1300     1.1300    -0.0000
  8 Cl    16.9861    17.0000     0.0139     1.1310     1.1310    -0.0000
  9 Cl    16.9780    17.0000     0.0220     1.1508     1.1508    -0.0000
 10 Cl    16.9798    17.0000     0.0202     1.1501     1.1501     0.0000
 11 Cl    16.9809    17.0000     0.0191     1.1320     1.1320    -0.0000
 12 Cl    16.9987    17.0000     0.0013     1.0999     1.0999     0.0000
 13 Cl    16.9940    17.0000     0.0060     1.1062     1.1062    -0.0000
 14 N      7.3603     7.0000    -0.3603     3.0330     3.0330     0.0000
 15 N      7.3554     7.0000    -0.3554     3.0269     3.0269    -0.0000
 16 N      7.4397     7.0000    -0.4397     2.9935     2.9935     0.0000
 17 C      5.9785     6.0000     0.0215     3.9563     3.9563     0.0000
 18 C      5.8421     6.0000     0.1579     3.9730     3.9730    -0.0000
 19 C      5.8444     6.0000     0.1556     3.9701     3.9701     0.0000
 20 C      5.8818     6.0000     0.1182     3.9332     3.9332    -0.0000
 21 C      5.9387     6.0000     0.0613     3.9199     3.9199     0.0000
 22 C      6.1221     6.0000    -0.1221     3.8529     3.8529    -0.0000
 23 H      0.8630     1.0000     0.1370     0.9793     0.9793    -0.0000
 24 C      5.9305     6.0000     0.0695     3.9225     3.9225    -0.0000
 25 C      6.1347     6.0000    -0.1347     3.8791     3.8791    -0.0000
 26 H      0.8733     1.0000     0.1267     0.9703     0.9703     0.0000
 27 C      5.9522     6.0000     0.0478     3.9756     3.9756    -0.0000
 28 C      5.9233     6.0000     0.0767     3.9527     3.9527    -0.0000
 29 C      5.9491     6.0000     0.0509     3.9561     3.9561    -0.0000
 30 C      5.8760     6.0000     0.1240     3.9279     3.9279    -0.0000
 31 C      6.1119     6.0000    -0.1119     3.9230     3.9230    -0.0000
 32 H      0.9088     1.0000     0.0912     0.9624     0.9624    -0.0000
 33 C      5.8998     6.0000     0.1002     3.9352     3.9352    -0.0000
 34 C      6.1512     6.0000    -0.1512     3.9564     3.9564    -0.0000
 35 H      0.9141     1.0000     0.0859     0.9631     0.9631     0.0000
 36 C      6.0983     6.0000    -0.0983     3.8809     3.8809     0.0000
 37 H      0.8700     1.0000     0.1300     0.9620     0.9620     0.0000
 38 C      6.0823     6.0000    -0.0823     3.9173     3.9173    -0.0000
 39 H      0.8727     1.0000     0.1273     0.9705     0.9705     0.0000
 40 C      6.1337     6.0000    -0.1337     3.9611     3.9611    -0.0000
 41 C      5.8483     6.0000     0.1517     3.9370     3.9370    -0.0000
 42 C      6.1522     6.0000    -0.1522     3.9407     3.9407    -0.0000
 43 H      0.9114     1.0000     0.0886     0.9628     0.9628    -0.0000
 44 C      6.0042     6.0000    -0.0042     3.9463     3.9463     0.0000
 45 C      5.8727     6.0000     0.1273     3.9523     3.9523    -0.0000
 46 C      6.0853     6.0000    -0.0853     3.9140     3.9140    -0.0000
 47 H      0.8813     1.0000     0.1187     0.9673     0.9673     0.0000
 48 C      5.8496     6.0000     0.1504     3.9966     3.9966    -0.0000
 49 C      6.1026     6.0000    -0.1026     3.8963     3.8963     0.0000
 50 H      0.8947     1.0000     0.1053     0.9628     0.9628     0.0000
 51 C      5.9251     6.0000     0.0749     3.9554     3.9554    -0.0000
 52 C      6.1480     6.0000    -0.1480     3.9512     3.9512    -0.0000
 53 C      5.8541     6.0000     0.1459     3.9879     3.9879    -0.0000
 54 C      6.1437     6.0000    -0.1437     3.9542     3.9542    -0.0000
 55 C      5.9213     6.0000     0.0787     3.8918     3.8918     0.0000
 56 C      6.0472     6.0000    -0.0472     3.8930     3.8930    -0.0000
 57 H      0.8570     1.0000     0.1430     0.9633     0.9633     0.0000
 58 C      6.0758     6.0000    -0.0758     3.9358     3.9358    -0.0000
 59 H      0.8839     1.0000     0.1161     0.9625     0.9625     0.0000
 60 C      6.0522     6.0000    -0.0522     3.8955     3.8955    -0.0000
 61 H      0.8570     1.0000     0.1430     0.9594     0.9594     0.0000
 62 C      6.0977     6.0000    -0.0977     3.9793     3.9793    -0.0000
 63 C      6.1351     6.0000    -0.1351     3.9517     3.9517    -0.0000
 64 C      6.1269     6.0000    -0.1269     3.9656     3.9656     0.0000
 65 C      6.2350     6.0000    -0.2350     3.8832     3.8832     0.0000
 66 H      0.8961     1.0000     0.1039     0.9560     0.9560     0.0000
 67 H      0.8748     1.0000     0.1252     0.9475     0.9475     0.0000
 68 C      6.2372     6.0000    -0.2372     3.8848     3.8848     0.0000
 69 H      0.8952     1.0000     0.1048     0.9568     0.9568     0.0000
 70 H      0.8776     1.0000     0.1224     0.9479     0.9479     0.0000
 71 C      6.0451     6.0000    -0.0451     3.8867     3.8867    -0.0000
 72 H      0.8483     1.0000     0.1517     0.9576     0.9576    -0.0000
 73 C      5.9165     6.0000     0.0835     3.9464     3.9464    -0.0000
 74 C      5.9237     6.0000     0.0763     3.8870     3.8870    -0.0000
 75 C      6.1236     6.0000    -0.1236     3.9720     3.9720     0.0000
 76 C      6.0437     6.0000    -0.0437     3.8909     3.8909    -0.0000
 77 H      0.8534     1.0000     0.1466     0.9625     0.9625    -0.0000
 78 C      6.1292     6.0000    -0.1292     3.9616     3.9616     0.0000
 79 C      6.2373     6.0000    -0.2373     3.8847     3.8847    -0.0000
 80 H      0.8953     1.0000     0.1047     0.9563     0.9563     0.0000
 81 C      6.0495     6.0000    -0.0495     3.8891     3.8891    -0.0000
 82 H      0.8567     1.0000     0.1433     0.9589     0.9589     0.0000
 83 C      6.0851     6.0000    -0.0851     3.9852     3.9852    -0.0000
 84 C      6.1118     6.0000    -0.1118     3.9711     3.9711    -0.0000
 85 C      6.0973     6.0000    -0.0973     3.9768     3.9768    -0.0000
 86 C      6.0465     6.0000    -0.0465     3.8923     3.8923     0.0000
 87 H      0.8553     1.0000     0.1447     0.9585     0.9585    -0.0000
 88 C      6.1185     6.0000    -0.1185     3.9643     3.9643    -0.0000
 89 C      6.2349     6.0000    -0.2349     3.8847     3.8847     0.0000
 90 C      6.0510     6.0000    -0.0510     3.8873     3.8873     0.0000
 91 H      0.8568     1.0000     0.1432     0.9588     0.9588     0.0000
 92 C      6.0482     6.0000    -0.0482     3.8926     3.8926    -0.0000
 93 H      0.8551     1.0000     0.1449     0.9586     0.9586    -0.0000
 94 C      6.0953     6.0000    -0.0953     3.9800     3.9800     0.0000
 95 H      0.9125     1.0000     0.0875     0.9631     0.9631    -0.0000
 96 H      0.8972     1.0000     0.1028     0.9563     0.9563     0.0000
 97 H      0.8751     1.0000     0.1249     0.9472     0.9472     0.0000
 98 H      0.8769     1.0000     0.1231     0.9474     0.9474     0.0000
 99 C      6.0850     6.0000    -0.0850     3.9113     3.9113     0.0000
100 C      6.1114     6.0000    -0.1114     3.9031     3.9031    -0.0000

  Mayer bond orders larger than 0.100000
B(  0-Cl, 17-C ) :   1.0599 B(  1-Cl, 44-C ) :   1.0394 B(  2-Cl, 40-C ) :   1.0479 
B(  3-Cl, 64-C ) :   1.0660 B(  4-Cl, 54-C ) :   1.0430 B(  5-Cl, 63-C ) :   1.0479 
B(  6-Cl, 75-C ) :   1.0561 B(  7-Cl, 78-C ) :   1.0527 B(  8-Cl, 62-C ) :   1.0388 
B(  9-Cl, 88-C ) :   1.0614 B( 10-Cl, 84-C ) :   1.0610 B( 11-Cl, 83-C ) :   1.0443 
B( 12-Cl, 85-C ) :   1.0311 B( 13-Cl, 94-C ) :   1.0350 B( 14-N , 17-C ) :   1.5120 
B( 14-N , 19-C ) :   1.3529 B( 15-N , 18-C ) :   1.3607 B( 15-N , 44-C ) :   1.4928 
B( 16-N , 48-C ) :   1.4160 B( 16-N , 53-C ) :   1.4102 B( 17-C , 20-C ) :   1.1953 
B( 18-C , 24-C ) :   1.0325 B( 18-C , 49-C ) :   1.3400 B( 19-C , 21-C ) :   1.0273 
B( 19-C , 36-C ) :   1.3436 B( 20-C , 38-C ) :   1.3007 B( 20-C , 99-C ) :   1.2166 
B( 21-C , 25-C ) :   1.3765 B( 21-C , 46-C ) :   1.3864 B( 22-C , 23-H ) :   0.9140 
B( 22-C , 24-C ) :   1.3616 B( 22-C , 29-C ) :   1.3779 B( 24-C , 31-C ) :   1.3957 
B( 25-C , 26-H ) :   0.9193 B( 25-C , 27-C ) :   1.3949 B( 27-C , 28-C ) :   1.4067 
B( 27-C , 53-C ) :   1.0263 B( 28-C , 42-C ) :   1.4150 B( 28-C , 68-C ) :   0.9928 
B( 29-C , 48-C ) :   1.0319 B( 29-C , 51-C ) :   1.4069 B( 30-C , 75-C ) :   1.3281 
B( 30-C , 84-C ) :   1.3170 B( 30-C , 99-C ) :   1.0856 B( 31-C , 32-H ) :   0.9391 
B( 31-C , 34-C ) :   1.4309 B( 33-C , 40-C ) :   1.3229 B( 33-C , 64-C ) :   1.3007 
B( 33-C , 99-C ) :   1.1092 B( 34-C , 35-H ) :   0.9411 B( 34-C , 51-C ) :   1.4196 
B( 36-C , 37-H ) :   0.9305 B( 36-C , 38-C ) :   1.4757 B( 38-C , 39-H ) :   0.9246 
B( 40-C , 76-C ) :   1.4157 B( 41-C , 54-C ) :   1.2977 B( 41-C , 63-C ) :   1.2905 
B( 41-C ,100-C ) :   1.1480 B( 42-C , 43-H ) :   0.9416 B( 42-C , 46-C ) :   1.4261 
B( 44-C , 45-C ) :   1.2048 B( 45-C , 58-C ) :   1.3208 B( 45-C ,100-C ) :   1.2000 
B( 46-C , 47-H ) :   0.9325 B( 48-C , 74-C ) :   1.3495 B( 49-C , 50-H ) :   0.9346 
B( 49-C , 58-C ) :   1.4891 B( 51-C , 79-C ) :   0.9916 B( 52-C , 55-C ) :   1.4190 
B( 52-C , 74-C ) :   1.4168 B( 52-C , 95-H ) :   0.9385 B( 53-C , 55-C ) :   1.3510 
B( 54-C , 56-C ) :   1.4267 B( 55-C , 65-C ) :   0.9861 B( 56-C , 57-H ) :   0.9306 
B( 56-C , 62-C ) :   1.3901 B( 58-C , 59-H ) :   0.9324 B( 60-C , 61-H ) :   0.9336 
B( 60-C , 62-C ) :   1.3843 B( 60-C , 63-C ) :   1.4348 B( 64-C , 71-C ) :   1.4274 
B( 65-C , 66-H ) :   0.9506 B( 65-C , 67-H ) :   0.9408 B( 65-C , 68-C ) :   0.9855 
B( 68-C , 69-H ) :   0.9507 B( 68-C , 70-H ) :   0.9414 B( 71-C , 72-H ) :   0.9319 
B( 71-C , 83-C ) :   1.3826 B( 73-C , 78-C ) :   1.3475 B( 73-C , 88-C ) :   1.3296 
B( 73-C ,100-C ) :   1.0645 B( 74-C , 89-C ) :   0.9874 B( 75-C , 92-C ) :   1.4182 
B( 76-C , 77-H ) :   0.9299 B( 76-C , 83-C ) :   1.3989 B( 78-C , 81-C ) :   1.4057 
B( 79-C , 80-H ) :   0.9501 B( 79-C , 89-C ) :   0.9861 B( 79-C , 98-H ) :   0.9411 
B( 81-C , 82-H ) :   0.9338 B( 81-C , 85-C ) :   1.4088 B( 84-C , 86-C ) :   1.4266 
B( 85-C , 90-C ) :   1.3966 B( 86-C , 87-H ) :   0.9332 B( 86-C , 94-C ) :   1.3937 
B( 88-C , 90-C ) :   1.4192 B( 89-C , 96-H ) :   0.9509 B( 89-C , 97-H ) :   0.9418 
B( 90-C , 91-H ) :   0.9341 B( 92-C , 93-H ) :   0.9332 B( 92-C , 94-C ) :   1.4012 
B( 99-C ,100-C ) :   0.1464 


--------------------------
UHF CORRESPONDING ORBITALS
--------------------------
Transforming orbitals                         ... VA transformation done
VB transformation done
T transformation done
R transformation done
done
Choosing virtual orbitals in the orth. comp.  ... done
                ***UHF Corresponding Orbitals were saved in THDBA-PyBTM.uco***


Now the overlap between the corresponding orbitals will be printed
Since there are an equal number of alpha and beta orbitals each orbital in the
alpha set is matched by an orbital in the beta set. If all overlaps are close to
one you have a normal UHF solution with some spin polarization
If you have a broken symmetry solution there will be overlaps that are
significantly smaller than one. These orbitals are the non-orthogonal magnetic
orbitals of the broken symmetry UHF solution.

----------------------
 Orbital    Overlap(*)
----------------------
   0:      1.00000
   1:      1.00000
   2:      1.00000
   3:      1.00000
   4:      1.00000
   5:      1.00000
   6:      1.00000
   7:      1.00000
   8:      1.00000
   9:      1.00000
  10:      1.00000
  11:      1.00000
  12:      1.00000
  13:      1.00000
  14:      1.00000
  15:      1.00000
  16:      1.00000
  17:      1.00000
  18:      1.00000
  19:      1.00000
  20:      1.00000
  21:      1.00000
  22:      1.00000
  23:      1.00000
  24:      1.00000
  25:      1.00000
  26:      1.00000
  27:      1.00000
  28:      1.00000
  29:      1.00000
  30:      1.00000
  31:      1.00000
  32:      1.00000
  33:      1.00000
  34:      1.00000
  35:      1.00000
  36:      1.00000
  37:      1.00000
  38:      1.00000
  39:      1.00000
  40:      1.00000
  41:      1.00000
  42:      1.00000
  43:      1.00000
  44:      1.00000
  45:      1.00000
  46:      1.00000
  47:      1.00000
  48:      1.00000
  49:      1.00000
  50:      1.00000
  51:      1.00000
  52:      1.00000
  53:      1.00000
  54:      1.00000
  55:      1.00000
  56:      1.00000
  57:      1.00000
  58:      1.00000
  59:      1.00000
  60:      1.00000
  61:      1.00000
  62:      1.00000
  63:      1.00000
  64:      1.00000
  65:      1.00000
  66:      1.00000
  67:      1.00000
  68:      1.00000
  69:      1.00000
  70:      1.00000
  71:      1.00000
  72:      1.00000
  73:      1.00000
  74:      1.00000
  75:      1.00000
  76:      1.00000
  77:      1.00000
  78:      1.00000
  79:      1.00000
  80:      1.00000
  81:      1.00000
  82:      1.00000
  83:      1.00000
  84:      1.00000
  85:      1.00000
  86:      1.00000
  87:      1.00000
  88:      1.00000
  89:      1.00000
  90:      1.00000
  91:      1.00000
  92:      1.00000
  93:      1.00000
  94:      1.00000
  95:      1.00000
  96:      1.00000
  97:      1.00000
  98:      1.00000
  99:      1.00000
 100:      1.00000
 101:      1.00000
 102:      1.00000
 103:      1.00000
 104:      1.00000
 105:      1.00000
 106:      1.00000
 107:      1.00000
 108:      1.00000
 109:      1.00000
 110:      1.00000
 111:      1.00000
 112:      1.00000
 113:      1.00000
 114:      1.00000
 115:      1.00000
 116:      1.00000
 117:      1.00000
 118:      1.00000
 119:      1.00000
 120:      1.00000
 121:      1.00000
 122:      1.00000
 123:      1.00000
 124:      1.00000
 125:      1.00000
 126:      1.00000
 127:      1.00000
 128:      1.00000
 129:      1.00000
 130:      1.00000
 131:      1.00000
 132:      1.00000
 133:      1.00000
 134:      1.00000
 135:      1.00000
 136:      1.00000
 137:      1.00000
 138:      1.00000
 139:      1.00000
 140:      1.00000
 141:      1.00000
 142:      1.00000
 143:      1.00000
 144:      1.00000
 145:      1.00000
 146:      1.00000
 147:      1.00000
 148:      1.00000
 149:      1.00000
 150:      1.00000
 151:      1.00000
 152:      1.00000
 153:      1.00000
 154:      1.00000
 155:      1.00000
 156:      1.00000
 157:      1.00000
 158:      1.00000
 159:      1.00000
 160:      1.00000
 161:      1.00000
 162:      1.00000
 163:      1.00000
 164:      1.00000
 165:      1.00000
 166:      1.00000
 167:      1.00000
 168:      1.00000
 169:      1.00000
 170:      1.00000
 171:      1.00000
 172:      1.00000
 173:      1.00000
 174:      1.00000
 175:      1.00000
 176:      1.00000
 177:      1.00000
 178:      1.00000
 179:      1.00000
 180:      1.00000
 181:      1.00000
 182:      1.00000
 183:      1.00000
 184:      1.00000
 185:      1.00000
 186:      1.00000
 187:      1.00000
 188:      1.00000
 189:      1.00000
 190:      1.00000
 191:      1.00000
 192:      1.00000
 193:      1.00000
 194:      1.00000
 195:      1.00000
 196:      1.00000
 197:      1.00000
 198:      1.00000
 199:      1.00000
 200:      1.00000
 201:      1.00000
 202:      1.00000
 203:      1.00000
 204:      1.00000
 205:      1.00000
 206:      1.00000
 207:      1.00000
 208:      1.00000
 209:      1.00000
 210:      1.00000
 211:      1.00000
 212:      1.00000
 213:      1.00000
 214:      1.00000
 215:      1.00000
 216:      1.00000
 217:      1.00000
 218:      1.00000
 219:      1.00000
 220:      1.00000
 221:      1.00000
 222:      1.00000
 223:      1.00000
 224:      1.00000
 225:      1.00000
 226:      1.00000
 227:      1.00000
 228:      1.00000
 229:      1.00000
 230:      1.00000
 231:      1.00000
 232:      1.00000
 233:      1.00000
 234:      1.00000
 235:      1.00000
 236:      1.00000
 237:      1.00000
 238:      1.00000
 239:      1.00000
 240:      1.00000
 241:      1.00000
 242:      1.00000
 243:      1.00000
 244:      1.00000
 245:      1.00000
 246:      1.00000
 247:      1.00000
 248:      1.00000
 249:      1.00000
 250:      1.00000
 251:      1.00000
 252:      1.00000
 253:      1.00000
 254:      1.00000
 255:      1.00000
 256:      1.00000
 257:      1.00000
 258:      1.00000
 259:      1.00000
 260:      1.00000
 261:      1.00000
 262:      1.00000
 263:      1.00000
 264:      1.00000
 265:      1.00000
 266:      1.00000
 267:      1.00000
 268:      1.00000
 269:      1.00000
 270:      1.00000
 271:      1.00000
 272:      1.00000
 273:      1.00000
 274:      1.00000
 275:      1.00000
 276:      1.00000
 277:      1.00000
 278:      1.00000
 279:      1.00000
 280:      1.00000
 281:      1.00000
 282:      1.00000
 283:      1.00000
 284:      1.00000
 285:      1.00000
 286:      1.00000
 287:      1.00000
 288:      1.00000
 289:      1.00000
 290:      1.00000
 291:      1.00000
 292:      1.00000
 293:      1.00000
 294:      1.00000
 295:      1.00000
 296:      1.00000
 297:      1.00000
 298:      1.00000
 299:      1.00000
 300:      1.00000
 301:      1.00000
 302:      1.00000
 303:      1.00000
 304:      1.00000
 305:      1.00000
 306:      1.00000
 307:      1.00000
 308:      1.00000
 309:      1.00000
 310:      1.00000
 311:      1.00000
 312:      1.00000
 313:      1.00000
(*)  the overlap is weighted by the product of occupation numbers
     NOTE: the whole analysis is not valid for fractional occupations

------------------------------------------
BROKEN SYMMETRY MAGNETIC COUPLING ANALYSIS
------------------------------------------

S(High-Spin)      =   0.0    
<S**2>(High-Spin) =  -0.0000    
<S**2>(BrokenSym) =  -0.0000    
E(High-Spin)      = -8793.879021 Eh
E(BrokenSym)      = -8793.879013 Eh
E(High-Spin)-E(BrokenSym)= -0.0002 eV     -1.927 cm**-1 (FERROMAGNETIC coupling)

          ---------------------------------------------------------
          | Spin-Hamiltonian Analysis based on H(HDvV)= -2J*SA*SB |
    -------                                                       -----------
    | J(1) =        inf cm**-1    (from -(E[HS]-E[BS])/Smax**2)             |
    | J(2) =        inf cm**-1    (from -(E[HS]-E[BS])/(Smax*(Smax+1))      |
    | J(3) = -1168685598141.78 cm**-1    (from -(E[HS]-E[BS])/(<S**2>HS-<S**2>BS)) |
    -------------------------------------------------------------------------

  J(1): (a) A.P. Ginsberg J. Am. Chem. Soc. 102 (1980), 111
        (b) L. Noodleman J. Chem. Phys. 74 (1981), 5737
        (c) L. Noodleman E.R. Davidson Chem. Phys. 109 (1986), 131
  J(2)  (d) A. Bencini D. Gatteschi J. Am. Chem. Soc. 108 (1980), 5763
  J(3)  (e) K. Yamaguchi Y. Takahara T. Fueno in: V.H. Smith (Ed.)
            Applied Quantum Chemistry. Reidel, Dordrecht (1986), pp 155
        (f) T.Soda et al. Chem. Phys. Lett., 319, (2000), 223


----------------
TOTAL SCF ENERGY
----------------

Total Energy       :      -8793.87901265969958 Eh         -239293.61339 eV

Components:
Nuclear Repulsion  :      16787.24545452606981 Eh          456804.17229 eV
Electronic Energy  :     -25581.12433388086356 Eh         -696097.78205 eV
One Electron Energy:     -45581.32483675221010 Eh        -1240330.90601 eV
Two Electron Energy:      20000.20050287134654 Eh          544233.12396 eV

Virial components:
Potential Energy   :     -17560.66894336912810 Eh         -477850.09538 eV
Kinetic Energy     :       8766.78993070943034 Eh          238556.48199 eV
Virial Ratio       :          2.00308996590136

DFT components:
N(Alpha)           :      314.000033488915 electrons
N(Beta)            :      314.000033488915 electrons
N(Total)           :      628.000066977830 electrons
E(XC)              :     -550.333762572079 Eh       

---------------
SCF CONVERGENCE
---------------

  Last Energy change         ...   -6.6975e-09  Tolerance :   1.0000e-08
  Last MAX-Density change    ...    1.4784e-05  Tolerance :   1.0000e-07
  Last RMS-Density change    ...    5.9312e-07  Tolerance :   5.0000e-09
  Last DIIS Error            ...    4.8199e-06  Tolerance :   5.0000e-07
  Last Orbital Gradient      ...    1.7717e-05  Tolerance :   1.0000e-05
  Last Orbital Rotation      ...    6.6903e-05  Tolerance :   1.0000e-05


----------------------
UHF SPIN CONTAMINATION
----------------------

Warning: in a DFT calculation there is little theoretical justification to 
         calculate <S**2> as in Hartree-Fock theory. We will do it anyways
         but you should keep in mind that the values have only limited relevance

Expectation value of <S**2>     :    -0.000000
Ideal value S*(S+1) for S=0.0   :     0.000000
Deviation                       :    -0.000000

----------------
ORBITAL ENERGIES
----------------
                 SPIN UP ORBITALS
  NO   OCC          E(Eh)            E(eV) 
   0   1.0000    -101.616947     -2765.1377 
   1   1.0000    -101.616612     -2765.1286 
   2   1.0000    -101.616537     -2765.1266 
   3   1.0000    -101.614766     -2765.0784 
   4   1.0000    -101.613663     -2765.0483 
   5   1.0000    -101.613441     -2765.0423 
   6   1.0000    -101.613223     -2765.0364 
   7   1.0000    -101.612428     -2765.0147 
   8   1.0000    -101.612280     -2765.0107 
   9   1.0000    -101.611609     -2764.9925 
  10   1.0000    -101.611328     -2764.9848 
  11   1.0000    -101.610982     -2764.9754 
  12   1.0000    -101.601577     -2764.7195 
  13   1.0000    -101.598772     -2764.6431 
  14   1.0000     -14.418024      -392.3344 
  15   1.0000     -14.416165      -392.2838 
  16   1.0000     -14.400192      -391.8491 
  17   1.0000     -10.365427      -282.0576 
  18   1.0000     -10.358368      -281.8655 
  19   1.0000     -10.349910      -281.6354 
  20   1.0000     -10.349166      -281.6151 
  21   1.0000     -10.347499      -281.5698 
  22   1.0000     -10.346848      -281.5521 
  23   1.0000     -10.346628      -281.5460 
  24   1.0000     -10.346562      -281.5443 
  25   1.0000     -10.346333      -281.5380 
  26   1.0000     -10.345859      -281.5251 
  27   1.0000     -10.345208      -281.5074 
  28   1.0000     -10.343272      -281.4547 
  29   1.0000     -10.342814      -281.4423 
  30   1.0000     -10.341406      -281.4040 
  31   1.0000     -10.319956      -280.8203 
  32   1.0000     -10.316360      -280.7224 
  33   1.0000     -10.315667      -280.7036 
  34   1.0000     -10.313942      -280.6566 
  35   1.0000     -10.311041      -280.5777 
  36   1.0000     -10.308668      -280.5131 
  37   1.0000     -10.307747      -280.4880 
  38   1.0000     -10.301740      -280.3246 
  39   1.0000     -10.299270      -280.2574 
  40   1.0000     -10.298670      -280.2411 
  41   1.0000     -10.296708      -280.1877 
  42   1.0000     -10.295951      -280.1671 
  43   1.0000     -10.294699      -280.1330 
  44   1.0000     -10.294654      -280.1318 
  45   1.0000     -10.294149      -280.1180 
  46   1.0000     -10.293954      -280.1127 
  47   1.0000     -10.293914      -280.1116 
  48   1.0000     -10.293525      -280.1010 
  49   1.0000     -10.291213      -280.0381 
  50   1.0000     -10.290404      -280.0161 
  51   1.0000     -10.288400      -279.9616 
  52   1.0000     -10.287318      -279.9321 
  53   1.0000     -10.276327      -279.6331 
  54   1.0000     -10.275125      -279.6004 
  55   1.0000     -10.274946      -279.5955 
  56   1.0000     -10.274436      -279.5816 
  57   1.0000     -10.274332      -279.5788 
  58   1.0000     -10.274231      -279.5760 
  59   1.0000     -10.273456      -279.5549 
  60   1.0000     -10.270978      -279.4875 
  61   1.0000     -10.270290      -279.4688 
  62   1.0000     -10.270150      -279.4650 
  63   1.0000     -10.269526      -279.4480 
  64   1.0000     -10.268785      -279.4278 
  65   1.0000     -10.268475      -279.4194 
  66   1.0000     -10.267034      -279.3802 
  67   1.0000     -10.266606      -279.3686 
  68   1.0000     -10.265924      -279.3500 
  69   1.0000     -10.263804      -279.2923 
  70   1.0000     -10.262292      -279.2512 
  71   1.0000     -10.261955      -279.2420 
  72   1.0000     -10.260481      -279.2019 
  73   1.0000     -10.256477      -279.0929 
  74   1.0000      -9.548705      -259.8335 
  75   1.0000      -9.548576      -259.8300 
  76   1.0000      -9.548325      -259.8231 
  77   1.0000      -9.546517      -259.7739 
  78   1.0000      -9.545402      -259.7436 
  79   1.0000      -9.545094      -259.7352 
  80   1.0000      -9.544991      -259.7324 
  81   1.0000      -9.543969      -259.7046 
  82   1.0000      -9.543651      -259.6960 
  83   1.0000      -9.543197      -259.6836 
  84   1.0000      -9.542873      -259.6748 
  85   1.0000      -9.542547      -259.6659 
  86   1.0000      -9.533408      -259.4172 
  87   1.0000      -9.531294      -259.3597 
  88   1.0000      -7.313001      -198.9969 
  89   1.0000      -7.312886      -198.9937 
  90   1.0000      -7.312702      -198.9887 
  91   1.0000      -7.310879      -198.9391 
  92   1.0000      -7.309755      -198.9086 
  93   1.0000      -7.309413      -198.8992 
  94   1.0000      -7.309377      -198.8983 
  95   1.0000      -7.308364      -198.8707 
  96   1.0000      -7.307989      -198.8605 
  97   1.0000      -7.307673      -198.8519 
  98   1.0000      -7.307214      -198.8394 
  99   1.0000      -7.306964      -198.8326 
 100   1.0000      -7.303254      -198.7316 
 101   1.0000      -7.303143      -198.7286 
 102   1.0000      -7.302961      -198.7237 
 103   1.0000      -7.302908      -198.7222 
 104   1.0000      -7.302809      -198.7195 
 105   1.0000      -7.302605      -198.7140 
 106   1.0000      -7.301101      -198.6731 
 107   1.0000      -7.300739      -198.6632 
 108   1.0000      -7.300013      -198.6435 
 109   1.0000      -7.299690      -198.6347 
 110   1.0000      -7.299603      -198.6323 
 111   1.0000      -7.299553      -198.6309 
 112   1.0000      -7.299376      -198.6261 
 113   1.0000      -7.299192      -198.6211 
 114   1.0000      -7.298559      -198.6039 
 115   1.0000      -7.298261      -198.5958 
 116   1.0000      -7.298185      -198.5937 
 117   1.0000      -7.297956      -198.5875 
 118   1.0000      -7.297729      -198.5813 
 119   1.0000      -7.297534      -198.5760 
 120   1.0000      -7.297451      -198.5737 
 121   1.0000      -7.297363      -198.5713 
 122   1.0000      -7.297119      -198.5647 
 123   1.0000      -7.297074      -198.5635 
 124   1.0000      -7.296752      -198.5547 
 125   1.0000      -7.295430      -198.5187 
 126   1.0000      -7.288378      -198.3268 
 127   1.0000      -7.287567      -198.3048 
 128   1.0000      -7.286090      -198.2646 
 129   1.0000      -7.285336      -198.2441 
 130   1.0000      -1.059406       -28.8279 
 131   1.0000      -1.056878       -28.7591 
 132   1.0000      -1.032766       -28.1030 
 133   1.0000      -1.022100       -27.8128 
 134   1.0000      -1.018843       -27.7241 
 135   1.0000      -1.011225       -27.5168 
 136   1.0000      -1.008509       -27.4429 
 137   1.0000      -0.975401       -26.5420 
 138   1.0000      -0.973686       -26.4954 
 139   1.0000      -0.969928       -26.3931 
 140   1.0000      -0.968190       -26.3458 
 141   1.0000      -0.967391       -26.3240 
 142   1.0000      -0.966475       -26.2991 
 143   1.0000      -0.966001       -26.2862 
 144   1.0000      -0.964702       -26.2509 
 145   1.0000      -0.962186       -26.1824 
 146   1.0000      -0.953854       -25.9557 
 147   1.0000      -0.941890       -25.6301 
 148   1.0000      -0.937433       -25.5088 
 149   1.0000      -0.923923       -25.1412 
 150   1.0000      -0.920511       -25.0484 
 151   1.0000      -0.915670       -24.9167 
 152   1.0000      -0.907324       -24.6895 
 153   1.0000      -0.901771       -24.5384 
 154   1.0000      -0.900873       -24.5140 
 155   1.0000      -0.900423       -24.5017 
 156   1.0000      -0.898366       -24.4458 
 157   1.0000      -0.877247       -23.8711 
 158   1.0000      -0.875501       -23.8236 
 159   1.0000      -0.872846       -23.7513 
 160   1.0000      -0.861541       -23.4437 
 161   1.0000      -0.851920       -23.1819 
 162   1.0000      -0.840792       -22.8791 
 163   1.0000      -0.835752       -22.7420 
 164   1.0000      -0.832751       -22.6603 
 165   1.0000      -0.831815       -22.6348 
 166   1.0000      -0.831394       -22.6234 
 167   1.0000      -0.830807       -22.6074 
 168   1.0000      -0.830694       -22.6043 
 169   1.0000      -0.827550       -22.5188 
 170   1.0000      -0.818860       -22.2823 
 171   1.0000      -0.806245       -21.9390 
 172   1.0000      -0.801294       -21.8043 
 173   1.0000      -0.765568       -20.8322 
 174   1.0000      -0.762067       -20.7369 
 175   1.0000      -0.738711       -20.1013 
 176   1.0000      -0.731269       -19.8988 
 177   1.0000      -0.725928       -19.7535 
 178   1.0000      -0.716601       -19.4997 
 179   1.0000      -0.709624       -19.3098 
 180   1.0000      -0.708278       -19.2732 
 181   1.0000      -0.701069       -19.0770 
 182   1.0000      -0.697343       -18.9757 
 183   1.0000      -0.695555       -18.9270 
 184   1.0000      -0.694906       -18.9093 
 185   1.0000      -0.692347       -18.8397 
 186   1.0000      -0.691445       -18.8152 
 187   1.0000      -0.689029       -18.7494 
 188   1.0000      -0.681427       -18.5426 
 189   1.0000      -0.675207       -18.3733 
 190   1.0000      -0.666567       -18.1382 
 191   1.0000      -0.665289       -18.1034 
 192   1.0000      -0.659714       -17.9517 
 193   1.0000      -0.653464       -17.7817 
 194   1.0000      -0.622995       -16.9526 
 195   1.0000      -0.615201       -16.7405 
 196   1.0000      -0.611051       -16.6276 
 197   1.0000      -0.608985       -16.5713 
 198   1.0000      -0.606324       -16.4989 
 199   1.0000      -0.598679       -16.2909 
 200   1.0000      -0.591233       -16.0883 
 201   1.0000      -0.589416       -16.0388 
 202   1.0000      -0.588153       -16.0044 
 203   1.0000      -0.582869       -15.8607 
 204   1.0000      -0.577850       -15.7241 
 205   1.0000      -0.577400       -15.7118 
 206   1.0000      -0.573716       -15.6116 
 207   1.0000      -0.568990       -15.4830 
 208   1.0000      -0.557328       -15.1657 
 209   1.0000      -0.552346       -15.0301 
 210   1.0000      -0.551313       -15.0020 
 211   1.0000      -0.547743       -14.9048 
 212   1.0000      -0.544788       -14.8244 
 213   1.0000      -0.544367       -14.8130 
 214   1.0000      -0.542479       -14.7616 
 215   1.0000      -0.538828       -14.6623 
 216   1.0000      -0.531974       -14.4758 
 217   1.0000      -0.530527       -14.4364 
 218   1.0000      -0.528825       -14.3901 
 219   1.0000      -0.523513       -14.2455 
 220   1.0000      -0.519361       -14.1325 
 221   1.0000      -0.518293       -14.1035 
 222   1.0000      -0.517427       -14.0799 
 223   1.0000      -0.516573       -14.0567 
 224   1.0000      -0.516151       -14.0452 
 225   1.0000      -0.515112       -14.0169 
 226   1.0000      -0.514891       -14.0109 
 227   1.0000      -0.513411       -13.9706 
 228   1.0000      -0.507795       -13.8178 
 229   1.0000      -0.506500       -13.7826 
 230   1.0000      -0.504556       -13.7297 
 231   1.0000      -0.501391       -13.6435 
 232   1.0000      -0.500985       -13.6325 
 233   1.0000      -0.499960       -13.6046 
 234   1.0000      -0.497619       -13.5409 
 235   1.0000      -0.495367       -13.4796 
 236   1.0000      -0.491166       -13.3653 
 237   1.0000      -0.489954       -13.3323 
 238   1.0000      -0.485385       -13.2080 
 239   1.0000      -0.478089       -13.0095 
 240   1.0000      -0.475123       -12.9287 
 241   1.0000      -0.473600       -12.8873 
 242   1.0000      -0.472307       -12.8521 
 243   1.0000      -0.471125       -12.8200 
 244   1.0000      -0.469254       -12.7691 
 245   1.0000      -0.466909       -12.7052 
 246   1.0000      -0.464914       -12.6509 
 247   1.0000      -0.464724       -12.6458 
 248   1.0000      -0.462039       -12.5727 
 249   1.0000      -0.459721       -12.5097 
 250   1.0000      -0.457841       -12.4585 
 251   1.0000      -0.455254       -12.3881 
 252   1.0000      -0.454629       -12.3711 
 253   1.0000      -0.452419       -12.3109 
 254   1.0000      -0.448607       -12.2072 
 255   1.0000      -0.445713       -12.1285 
 256   1.0000      -0.444416       -12.0932 
 257   1.0000      -0.442767       -12.0483 
 258   1.0000      -0.442170       -12.0320 
 259   1.0000      -0.439600       -11.9621 
 260   1.0000      -0.438590       -11.9346 
 261   1.0000      -0.438125       -11.9220 
 262   1.0000      -0.437305       -11.8997 
 263   1.0000      -0.433692       -11.8014 
 264   1.0000      -0.431660       -11.7461 
 265   1.0000      -0.428669       -11.6647 
 266   1.0000      -0.423482       -11.5235 
 267   1.0000      -0.419410       -11.4127 
 268   1.0000      -0.408046       -11.1035 
 269   1.0000      -0.406055       -11.0493 
 270   1.0000      -0.403206       -10.9718 
 271   1.0000      -0.400495       -10.8980 
 272   1.0000      -0.399693       -10.8762 
 273   1.0000      -0.398478       -10.8431 
 274   1.0000      -0.396206       -10.7813 
 275   1.0000      -0.394362       -10.7311 
 276   1.0000      -0.393926       -10.7193 
 277   1.0000      -0.393163       -10.6985 
 278   1.0000      -0.392907       -10.6915 
 279   1.0000      -0.392048       -10.6682 
 280   1.0000      -0.390487       -10.6257 
 281   1.0000      -0.388114       -10.5611 
 282   1.0000      -0.387405       -10.5418 
 283   1.0000      -0.384216       -10.4550 
 284   1.0000      -0.383704       -10.4411 
 285   1.0000      -0.381248       -10.3743 
 286   1.0000      -0.378920       -10.3109 
 287   1.0000      -0.377947       -10.2845 
 288   1.0000      -0.376748       -10.2518 
 289   1.0000      -0.374034       -10.1780 
 290   1.0000      -0.369783       -10.0623 
 291   1.0000      -0.366439        -9.9713 
 292   1.0000      -0.358568        -9.7571 
 293   1.0000      -0.356048        -9.6886 
 294   1.0000      -0.349023        -9.4974 
 295   1.0000      -0.342063        -9.3080 
 296   1.0000      -0.338816        -9.2197 
 297   1.0000      -0.337679        -9.1887 
 298   1.0000      -0.334059        -9.0902 
 299   1.0000      -0.333114        -9.0645 
 300   1.0000      -0.320596        -8.7239 
 301   1.0000      -0.318307        -8.6616 
 302   1.0000      -0.317140        -8.6298 
 303   1.0000      -0.315259        -8.5786 
 304   1.0000      -0.314875        -8.5682 
 305   1.0000      -0.312414        -8.5012 
 306   1.0000      -0.310650        -8.4532 
 307   1.0000      -0.308401        -8.3920 
 308   1.0000      -0.307161        -8.3583 
 309   1.0000      -0.299953        -8.1621 
 310   1.0000      -0.286532        -7.7969 
 311   1.0000      -0.282394        -7.6843 
 312   1.0000      -0.259995        -7.0748 
 313   1.0000      -0.185344        -5.0435 
 314   0.0000      -0.136730        -3.7206 
 315   0.0000      -0.013388        -0.3643 
 316   0.0000      -0.011161        -0.3037 
 317   0.0000      -0.004002        -0.1089 
 318   0.0000      -0.002324        -0.0632 
 319   0.0000       0.000335         0.0091 
 320   0.0000       0.004037         0.1099 
 321   0.0000       0.006402         0.1742 
 322   0.0000       0.007991         0.2174 
 323   0.0000       0.013570         0.3693 
 324   0.0000       0.016372         0.4455 

                 SPIN DOWN ORBITALS
  NO   OCC          E(Eh)            E(eV) 
   0   1.0000    -101.616947     -2765.1377 
   1   1.0000    -101.616612     -2765.1286 
   2   1.0000    -101.616537     -2765.1266 
   3   1.0000    -101.614766     -2765.0784 
   4   1.0000    -101.613663     -2765.0483 
   5   1.0000    -101.613441     -2765.0423 
   6   1.0000    -101.613223     -2765.0364 
   7   1.0000    -101.612428     -2765.0147 
   8   1.0000    -101.612280     -2765.0107 
   9   1.0000    -101.611609     -2764.9925 
  10   1.0000    -101.611328     -2764.9848 
  11   1.0000    -101.610982     -2764.9754 
  12   1.0000    -101.601577     -2764.7195 
  13   1.0000    -101.598772     -2764.6431 
  14   1.0000     -14.418024      -392.3344 
  15   1.0000     -14.416165      -392.2838 
  16   1.0000     -14.400192      -391.8491 
  17   1.0000     -10.365427      -282.0576 
  18   1.0000     -10.358368      -281.8655 
  19   1.0000     -10.349910      -281.6354 
  20   1.0000     -10.349166      -281.6151 
  21   1.0000     -10.347499      -281.5698 
  22   1.0000     -10.346848      -281.5521 
  23   1.0000     -10.346628      -281.5460 
  24   1.0000     -10.346562      -281.5443 
  25   1.0000     -10.346333      -281.5380 
  26   1.0000     -10.345859      -281.5251 
  27   1.0000     -10.345208      -281.5074 
  28   1.0000     -10.343272      -281.4547 
  29   1.0000     -10.342814      -281.4423 
  30   1.0000     -10.341406      -281.4040 
  31   1.0000     -10.319956      -280.8203 
  32   1.0000     -10.316360      -280.7224 
  33   1.0000     -10.315667      -280.7036 
  34   1.0000     -10.313942      -280.6566 
  35   1.0000     -10.311041      -280.5777 
  36   1.0000     -10.308668      -280.5131 
  37   1.0000     -10.307747      -280.4880 
  38   1.0000     -10.301740      -280.3246 
  39   1.0000     -10.299270      -280.2574 
  40   1.0000     -10.298670      -280.2411 
  41   1.0000     -10.296708      -280.1877 
  42   1.0000     -10.295951      -280.1671 
  43   1.0000     -10.294699      -280.1330 
  44   1.0000     -10.294654      -280.1318 
  45   1.0000     -10.294149      -280.1180 
  46   1.0000     -10.293954      -280.1127 
  47   1.0000     -10.293914      -280.1116 
  48   1.0000     -10.293525      -280.1010 
  49   1.0000     -10.291213      -280.0381 
  50   1.0000     -10.290404      -280.0161 
  51   1.0000     -10.288400      -279.9616 
  52   1.0000     -10.287318      -279.9321 
  53   1.0000     -10.276327      -279.6331 
  54   1.0000     -10.275125      -279.6004 
  55   1.0000     -10.274946      -279.5955 
  56   1.0000     -10.274436      -279.5816 
  57   1.0000     -10.274332      -279.5788 
  58   1.0000     -10.274231      -279.5760 
  59   1.0000     -10.273456      -279.5549 
  60   1.0000     -10.270978      -279.4875 
  61   1.0000     -10.270290      -279.4688 
  62   1.0000     -10.270150      -279.4650 
  63   1.0000     -10.269526      -279.4480 
  64   1.0000     -10.268785      -279.4278 
  65   1.0000     -10.268475      -279.4194 
  66   1.0000     -10.267034      -279.3802 
  67   1.0000     -10.266606      -279.3686 
  68   1.0000     -10.265924      -279.3500 
  69   1.0000     -10.263804      -279.2923 
  70   1.0000     -10.262292      -279.2512 
  71   1.0000     -10.261955      -279.2420 
  72   1.0000     -10.260481      -279.2019 
  73   1.0000     -10.256477      -279.0929 
  74   1.0000      -9.548705      -259.8335 
  75   1.0000      -9.548576      -259.8300 
  76   1.0000      -9.548325      -259.8231 
  77   1.0000      -9.546517      -259.7739 
  78   1.0000      -9.545402      -259.7436 
  79   1.0000      -9.545094      -259.7352 
  80   1.0000      -9.544991      -259.7324 
  81   1.0000      -9.543969      -259.7046 
  82   1.0000      -9.543651      -259.6960 
  83   1.0000      -9.543197      -259.6836 
  84   1.0000      -9.542873      -259.6748 
  85   1.0000      -9.542547      -259.6659 
  86   1.0000      -9.533408      -259.4172 
  87   1.0000      -9.531294      -259.3597 
  88   1.0000      -7.313001      -198.9969 
  89   1.0000      -7.312886      -198.9937 
  90   1.0000      -7.312702      -198.9887 
  91   1.0000      -7.310879      -198.9391 
  92   1.0000      -7.309755      -198.9086 
  93   1.0000      -7.309413      -198.8992 
  94   1.0000      -7.309377      -198.8983 
  95   1.0000      -7.308364      -198.8707 
  96   1.0000      -7.307989      -198.8605 
  97   1.0000      -7.307673      -198.8519 
  98   1.0000      -7.307214      -198.8394 
  99   1.0000      -7.306964      -198.8326 
 100   1.0000      -7.303254      -198.7316 
 101   1.0000      -7.303143      -198.7286 
 102   1.0000      -7.302961      -198.7237 
 103   1.0000      -7.302908      -198.7222 
 104   1.0000      -7.302809      -198.7195 
 105   1.0000      -7.302605      -198.7140 
 106   1.0000      -7.301101      -198.6731 
 107   1.0000      -7.300739      -198.6632 
 108   1.0000      -7.300013      -198.6435 
 109   1.0000      -7.299690      -198.6347 
 110   1.0000      -7.299603      -198.6323 
 111   1.0000      -7.299553      -198.6309 
 112   1.0000      -7.299376      -198.6261 
 113   1.0000      -7.299192      -198.6211 
 114   1.0000      -7.298559      -198.6039 
 115   1.0000      -7.298261      -198.5958 
 116   1.0000      -7.298185      -198.5937 
 117   1.0000      -7.297956      -198.5875 
 118   1.0000      -7.297729      -198.5813 
 119   1.0000      -7.297534      -198.5760 
 120   1.0000      -7.297451      -198.5737 
 121   1.0000      -7.297363      -198.5713 
 122   1.0000      -7.297119      -198.5647 
 123   1.0000      -7.297074      -198.5635 
 124   1.0000      -7.296752      -198.5547 
 125   1.0000      -7.295430      -198.5187 
 126   1.0000      -7.288378      -198.3268 
 127   1.0000      -7.287567      -198.3048 
 128   1.0000      -7.286090      -198.2646 
 129   1.0000      -7.285336      -198.2441 
 130   1.0000      -1.059406       -28.8279 
 131   1.0000      -1.056878       -28.7591 
 132   1.0000      -1.032766       -28.1030 
 133   1.0000      -1.022100       -27.8128 
 134   1.0000      -1.018843       -27.7241 
 135   1.0000      -1.011225       -27.5168 
 136   1.0000      -1.008509       -27.4429 
 137   1.0000      -0.975401       -26.5420 
 138   1.0000      -0.973686       -26.4954 
 139   1.0000      -0.969928       -26.3931 
 140   1.0000      -0.968190       -26.3458 
 141   1.0000      -0.967391       -26.3240 
 142   1.0000      -0.966475       -26.2991 
 143   1.0000      -0.966001       -26.2862 
 144   1.0000      -0.964702       -26.2509 
 145   1.0000      -0.962186       -26.1824 
 146   1.0000      -0.953854       -25.9557 
 147   1.0000      -0.941890       -25.6301 
 148   1.0000      -0.937433       -25.5088 
 149   1.0000      -0.923923       -25.1412 
 150   1.0000      -0.920511       -25.0484 
 151   1.0000      -0.915670       -24.9167 
 152   1.0000      -0.907324       -24.6895 
 153   1.0000      -0.901771       -24.5384 
 154   1.0000      -0.900873       -24.5140 
 155   1.0000      -0.900423       -24.5017 
 156   1.0000      -0.898366       -24.4458 
 157   1.0000      -0.877247       -23.8711 
 158   1.0000      -0.875501       -23.8236 
 159   1.0000      -0.872846       -23.7513 
 160   1.0000      -0.861541       -23.4437 
 161   1.0000      -0.851920       -23.1819 
 162   1.0000      -0.840792       -22.8791 
 163   1.0000      -0.835752       -22.7420 
 164   1.0000      -0.832751       -22.6603 
 165   1.0000      -0.831815       -22.6348 
 166   1.0000      -0.831394       -22.6234 
 167   1.0000      -0.830807       -22.6074 
 168   1.0000      -0.830694       -22.6043 
 169   1.0000      -0.827550       -22.5188 
 170   1.0000      -0.818860       -22.2823 
 171   1.0000      -0.806245       -21.9390 
 172   1.0000      -0.801294       -21.8043 
 173   1.0000      -0.765568       -20.8322 
 174   1.0000      -0.762067       -20.7369 
 175   1.0000      -0.738711       -20.1013 
 176   1.0000      -0.731269       -19.8988 
 177   1.0000      -0.725928       -19.7535 
 178   1.0000      -0.716601       -19.4997 
 179   1.0000      -0.709624       -19.3098 
 180   1.0000      -0.708278       -19.2732 
 181   1.0000      -0.701069       -19.0770 
 182   1.0000      -0.697343       -18.9757 
 183   1.0000      -0.695555       -18.9270 
 184   1.0000      -0.694906       -18.9093 
 185   1.0000      -0.692347       -18.8397 
 186   1.0000      -0.691445       -18.8152 
 187   1.0000      -0.689029       -18.7494 
 188   1.0000      -0.681427       -18.5426 
 189   1.0000      -0.675207       -18.3733 
 190   1.0000      -0.666567       -18.1382 
 191   1.0000      -0.665289       -18.1034 
 192   1.0000      -0.659714       -17.9517 
 193   1.0000      -0.653464       -17.7817 
 194   1.0000      -0.622995       -16.9526 
 195   1.0000      -0.615201       -16.7405 
 196   1.0000      -0.611051       -16.6276 
 197   1.0000      -0.608985       -16.5713 
 198   1.0000      -0.606324       -16.4989 
 199   1.0000      -0.598679       -16.2909 
 200   1.0000      -0.591233       -16.0883 
 201   1.0000      -0.589416       -16.0388 
 202   1.0000      -0.588153       -16.0044 
 203   1.0000      -0.582869       -15.8607 
 204   1.0000      -0.577850       -15.7241 
 205   1.0000      -0.577400       -15.7118 
 206   1.0000      -0.573716       -15.6116 
 207   1.0000      -0.568990       -15.4830 
 208   1.0000      -0.557328       -15.1657 
 209   1.0000      -0.552346       -15.0301 
 210   1.0000      -0.551313       -15.0020 
 211   1.0000      -0.547743       -14.9048 
 212   1.0000      -0.544788       -14.8244 
 213   1.0000      -0.544367       -14.8130 
 214   1.0000      -0.542479       -14.7616 
 215   1.0000      -0.538828       -14.6623 
 216   1.0000      -0.531974       -14.4758 
 217   1.0000      -0.530527       -14.4364 
 218   1.0000      -0.528825       -14.3901 
 219   1.0000      -0.523513       -14.2455 
 220   1.0000      -0.519361       -14.1325 
 221   1.0000      -0.518293       -14.1035 
 222   1.0000      -0.517427       -14.0799 
 223   1.0000      -0.516573       -14.0567 
 224   1.0000      -0.516151       -14.0452 
 225   1.0000      -0.515112       -14.0169 
 226   1.0000      -0.514891       -14.0109 
 227   1.0000      -0.513411       -13.9706 
 228   1.0000      -0.507795       -13.8178 
 229   1.0000      -0.506500       -13.7826 
 230   1.0000      -0.504556       -13.7297 
 231   1.0000      -0.501391       -13.6435 
 232   1.0000      -0.500985       -13.6325 
 233   1.0000      -0.499960       -13.6046 
 234   1.0000      -0.497619       -13.5409 
 235   1.0000      -0.495367       -13.4796 
 236   1.0000      -0.491166       -13.3653 
 237   1.0000      -0.489954       -13.3323 
 238   1.0000      -0.485385       -13.2080 
 239   1.0000      -0.478089       -13.0095 
 240   1.0000      -0.475123       -12.9287 
 241   1.0000      -0.473600       -12.8873 
 242   1.0000      -0.472307       -12.8521 
 243   1.0000      -0.471125       -12.8200 
 244   1.0000      -0.469254       -12.7691 
 245   1.0000      -0.466909       -12.7052 
 246   1.0000      -0.464914       -12.6509 
 247   1.0000      -0.464724       -12.6458 
 248   1.0000      -0.462039       -12.5727 
 249   1.0000      -0.459721       -12.5097 
 250   1.0000      -0.457841       -12.4585 
 251   1.0000      -0.455254       -12.3881 
 252   1.0000      -0.454629       -12.3711 
 253   1.0000      -0.452419       -12.3109 
 254   1.0000      -0.448607       -12.2072 
 255   1.0000      -0.445713       -12.1285 
 256   1.0000      -0.444416       -12.0932 
 257   1.0000      -0.442767       -12.0483 
 258   1.0000      -0.442170       -12.0320 
 259   1.0000      -0.439600       -11.9621 
 260   1.0000      -0.438590       -11.9346 
 261   1.0000      -0.438125       -11.9220 
 262   1.0000      -0.437305       -11.8997 
 263   1.0000      -0.433692       -11.8014 
 264   1.0000      -0.431660       -11.7461 
 265   1.0000      -0.428669       -11.6647 
 266   1.0000      -0.423482       -11.5235 
 267   1.0000      -0.419410       -11.4127 
 268   1.0000      -0.408046       -11.1035 
 269   1.0000      -0.406055       -11.0493 
 270   1.0000      -0.403206       -10.9718 
 271   1.0000      -0.400495       -10.8980 
 272   1.0000      -0.399693       -10.8762 
 273   1.0000      -0.398478       -10.8431 
 274   1.0000      -0.396206       -10.7813 
 275   1.0000      -0.394362       -10.7311 
 276   1.0000      -0.393926       -10.7193 
 277   1.0000      -0.393163       -10.6985 
 278   1.0000      -0.392907       -10.6915 
 279   1.0000      -0.392048       -10.6682 
 280   1.0000      -0.390487       -10.6257 
 281   1.0000      -0.388114       -10.5611 
 282   1.0000      -0.387405       -10.5418 
 283   1.0000      -0.384216       -10.4550 
 284   1.0000      -0.383704       -10.4411 
 285   1.0000      -0.381248       -10.3743 
 286   1.0000      -0.378920       -10.3109 
 287   1.0000      -0.377947       -10.2845 
 288   1.0000      -0.376748       -10.2518 
 289   1.0000      -0.374034       -10.1780 
 290   1.0000      -0.369783       -10.0623 
 291   1.0000      -0.366439        -9.9713 
 292   1.0000      -0.358568        -9.7571 
 293   1.0000      -0.356048        -9.6886 
 294   1.0000      -0.349023        -9.4974 
 295   1.0000      -0.342063        -9.3080 
 296   1.0000      -0.338816        -9.2197 
 297   1.0000      -0.337679        -9.1887 
 298   1.0000      -0.334059        -9.0902 
 299   1.0000      -0.333114        -9.0645 
 300   1.0000      -0.320596        -8.7239 
 301   1.0000      -0.318307        -8.6616 
 302   1.0000      -0.317140        -8.6298 
 303   1.0000      -0.315259        -8.5786 
 304   1.0000      -0.314875        -8.5682 
 305   1.0000      -0.312414        -8.5012 
 306   1.0000      -0.310650        -8.4532 
 307   1.0000      -0.308401        -8.3920 
 308   1.0000      -0.307161        -8.3583 
 309   1.0000      -0.299953        -8.1621 
 310   1.0000      -0.286532        -7.7969 
 311   1.0000      -0.282394        -7.6843 
 312   1.0000      -0.259995        -7.0748 
 313   1.0000      -0.185344        -5.0435 
 314   0.0000      -0.136730        -3.7206 
 315   0.0000      -0.013388        -0.3643 
 316   0.0000      -0.011161        -0.3037 
 317   0.0000      -0.004002        -0.1089 
 318   0.0000      -0.002324        -0.0632 
 319   0.0000       0.000335         0.0091 
 320   0.0000       0.004037         0.1099 
 321   0.0000       0.006402         0.1742 
 322   0.0000       0.007991         0.2174 
 323   0.0000       0.013570         0.3693 
 324   0.0000       0.016372         0.4455 
*Only the first 10 virtual orbitals were printed.

                    ********************************
                    * MULLIKEN POPULATION ANALYSIS *
                    ********************************

--------------------------------------------
MULLIKEN ATOMIC CHARGES AND SPIN POPULATIONS
--------------------------------------------
   0 Cl:    0.009446   -0.000000
   1 Cl:   -0.003112    0.000000
   2 Cl:    0.014122   -0.000000
   3 Cl:    0.029480   -0.000000
   4 Cl:    0.010527    0.000000
   5 Cl:    0.011008    0.000000
   6 Cl:    0.019773   -0.000000
   7 Cl:    0.013732    0.000000
   8 Cl:    0.013916    0.000000
   9 Cl:    0.022003    0.000000
  10 Cl:    0.020196   -0.000000
  11 Cl:    0.019101   -0.000000
  12 Cl:    0.001318    0.000000
  13 Cl:    0.006047   -0.000000
  14 N :   -0.360262    0.000000
  15 N :   -0.355374   -0.000000
  16 N :   -0.439727   -0.000000
  17 C :    0.021500   -0.000000
  18 C :    0.157864    0.000000
  19 C :    0.155641   -0.000000
  20 C :    0.118153    0.000000
  21 C :    0.061290    0.000000
  22 C :   -0.122138    0.000000
  23 H :    0.136951    0.000000
  24 C :    0.069468   -0.000000
  25 C :   -0.134734   -0.000000
  26 H :    0.126743    0.000000
  27 C :    0.047753   -0.000000
  28 C :    0.076699   -0.000000
  29 C :    0.050873   -0.000000
  30 C :    0.124047    0.000000
  31 C :   -0.111858    0.000000
  32 H :    0.091217    0.000000
  33 C :    0.100198    0.000000
  34 C :   -0.151226   -0.000000
  35 H :    0.085882   -0.000000
  36 C :   -0.098337    0.000000
  37 H :    0.129996   -0.000000
  38 C :   -0.082319   -0.000000
  39 H :    0.127266    0.000000
  40 C :   -0.133652   -0.000000
  41 C :    0.151740   -0.000000
  42 C :   -0.152176   -0.000000
  43 H :    0.088645    0.000000
  44 C :   -0.004237    0.000000
  45 C :    0.127271   -0.000000
  46 C :   -0.085302   -0.000000
  47 H :    0.118693    0.000000
  48 C :    0.150427    0.000000
  49 C :   -0.102585   -0.000000
  50 H :    0.105349    0.000000
  51 C :    0.074870    0.000000
  52 C :   -0.148018    0.000000
  53 C :    0.145860   -0.000000
  54 C :   -0.143719    0.000000
  55 C :    0.078661    0.000000
  56 C :   -0.047181   -0.000000
  57 H :    0.142965    0.000000
  58 C :   -0.075802    0.000000
  59 H :    0.116061   -0.000000
  60 C :   -0.052199   -0.000000
  61 H :    0.143027    0.000000
  62 C :   -0.097658    0.000000
  63 C :   -0.135113    0.000000
  64 C :   -0.126903   -0.000000
  65 C :   -0.235044   -0.000000
  66 H :    0.103927    0.000000
  67 H :    0.125174    0.000000
  68 C :   -0.237209    0.000000
  69 H :    0.104823    0.000000
  70 H :    0.122433   -0.000000
  71 C :   -0.045089    0.000000
  72 H :    0.151688   -0.000000
  73 C :    0.083462   -0.000000
  74 C :    0.076285   -0.000000
  75 C :   -0.123591   -0.000000
  76 C :   -0.043687    0.000000
  77 H :    0.146598   -0.000000
  78 C :   -0.129172    0.000000
  79 C :   -0.237290    0.000000
  80 H :    0.104651    0.000000
  81 C :   -0.049510   -0.000000
  82 H :    0.143348    0.000000
  83 C :   -0.085134   -0.000000
  84 C :   -0.111768   -0.000000
  85 C :   -0.097313    0.000000
  86 C :   -0.046485   -0.000000
  87 H :    0.144740   -0.000000
  88 C :   -0.118519    0.000000
  89 C :   -0.234914    0.000000
  90 C :   -0.050965   -0.000000
  91 H :    0.143191    0.000000
  92 C :   -0.048152   -0.000000
  93 H :    0.144869   -0.000000
  94 C :   -0.095259   -0.000000
  95 H :    0.087505    0.000000
  96 H :    0.102766    0.000000
  97 H :    0.124860    0.000000
  98 H :    0.123053    0.000000
  99 C :   -0.085035   -0.000000
 100 C :   -0.111380    0.000000
Sum of atomic charges         :   -0.0000000
Sum of atomic spin populations:    0.0000000

-----------------------------------------------------
MULLIKEN REDUCED ORBITAL CHARGES AND SPIN POPULATIONS
-----------------------------------------------------
CHARGE
  0 Cls       :     5.926722  s :     5.926722
      pz      :     3.873104  p :    11.035818
      px      :     3.593739
      py      :     3.568976
      dz2     :     0.004052  d :     0.028013
      dxz     :     0.003589
      dyz     :     0.004076
      dx2y2   :     0.002879
      dxy     :     0.013417

  1 Cls       :     5.922173  s :     5.922173
      pz      :     3.853828  p :    11.052364
      px      :     3.477093
      py      :     3.721443
      dz2     :     0.003835  d :     0.028575
      dxz     :     0.006307
      dyz     :     0.002818
      dx2y2   :     0.003886
      dxy     :     0.011729

  2 Cls       :     5.929667  s :     5.929667
      pz      :     3.500994  p :    11.025407
      px      :     3.585843
      py      :     3.938571
      dz2     :     0.006965  d :     0.030804
      dxz     :     0.014501
      dyz     :     0.002341
      dx2y2   :     0.004999
      dxy     :     0.001997

  3 Cls       :     5.927640  s :     5.927640
      pz      :     3.832515  p :    11.011977
      px      :     3.706241
      py      :     3.473222
      dz2     :     0.003819  d :     0.030903
      dxz     :     0.003083
      dyz     :     0.007047
      dx2y2   :     0.005231
      dxy     :     0.011723

  4 Cls       :     5.928322  s :     5.928322
      pz      :     3.586509  p :    11.030229
      px      :     3.826817
      py      :     3.616903
      dz2     :     0.005424  d :     0.030922
      dxz     :     0.005096
      dyz     :     0.011303
      dx2y2   :     0.003977
      dxy     :     0.005122

  5 Cls       :     5.928000  s :     5.928000
      pz      :     3.883137  p :    11.030385
      px      :     3.237554
      py      :     3.909694
      dz2     :     0.004304  d :     0.030606
      dxz     :     0.007580
      dyz     :     0.000628
      dx2y2   :     0.011962
      dxy     :     0.006133

  6 Cls       :     5.925719  s :     5.925719
      pz      :     3.221904  p :    11.023967
      px      :     3.897584
      py      :     3.904478
      dz2     :     0.015665  d :     0.030541
      dxz     :     0.006353
      dyz     :     0.007004
      dx2y2   :     0.000764
      dxy     :     0.000754

  7 Cls       :     5.926224  s :     5.926224
      pz      :     3.299249  p :    11.029618
      px      :     3.930610
      py      :     3.799758
      dz2     :     0.011727  d :     0.030426
      dxz     :     0.005098
      dyz     :     0.010901
      dx2y2   :     0.001260
      dxy     :     0.001439

  8 Cls       :     5.926574  s :     5.926574
      pz      :     3.701078  p :    11.028681
      px      :     3.597241
      py      :     3.730362
      dz2     :     0.003776  d :     0.030830
      dxz     :     0.009379
      dyz     :     0.005416
      dx2y2   :     0.003466
      dxy     :     0.008793

  9 Cls       :     5.927134  s :     5.927134
      pz      :     3.326371  p :    11.020070
      px      :     3.921425
      py      :     3.772274
      dz2     :     0.010391  d :     0.030793
      dxz     :     0.005157
      dyz     :     0.011868
      dx2y2   :     0.001571
      dxy     :     0.001806

 10 Cls       :     5.927094  s :     5.927094
      pz      :     3.424777  p :    11.021930
      px      :     3.685254
      py      :     3.911899
      dz2     :     0.006958  d :     0.030780
      dxz     :     0.013828
      dyz     :     0.004613
      dx2y2   :     0.002939
      dxy     :     0.002442

 11 Cls       :     5.925805  s :     5.925805
      pz      :     3.738335  p :    11.024734
      px      :     3.929400
      py      :     3.356999
      dz2     :     0.003308  d :     0.030360
      dxz     :     0.001305
      dyz     :     0.012458
      dx2y2   :     0.008935
      dxy     :     0.004355

 12 Cls       :     5.926005  s :     5.926005
      pz      :     3.951117  p :    11.042664
      px      :     3.918967
      py      :     3.172580
      dz2     :     0.005159  d :     0.030013
      dxz     :     0.000133
      dyz     :     0.003749
      dx2y2   :     0.013941
      dxy     :     0.007033

 13 Cls       :     5.925758  s :     5.925758
      pz      :     3.929398  p :    11.038257
      px      :     3.292319
      py      :     3.816540
      dz2     :     0.004671  d :     0.029938
      dxz     :     0.004330
      dyz     :     0.000896
      dx2y2   :     0.009823
      dxy     :     0.010217

 14 N s       :     3.649223  s :     3.649223
      pz      :     1.134806  p :     3.672619
      px      :     0.997684
      py      :     1.540129
      dz2     :     0.005002  d :     0.038420
      dxz     :     0.006528
      dyz     :     0.006726
      dx2y2   :     0.006810
      dxy     :     0.013354

 15 N s       :     3.650943  s :     3.650943
      pz      :     1.211396  p :     3.665847
      px      :     0.976798
      py      :     1.477653
      dz2     :     0.004991  d :     0.038584
      dxz     :     0.008557
      dyz     :     0.005551
      dx2y2   :     0.006134
      dxy     :     0.013350

 16 N s       :     3.685395  s :     3.685395
      pz      :     1.150698  p :     3.716497
      px      :     1.376300
      py      :     1.189500
      dz2     :     0.005006  d :     0.037834
      dxz     :     0.006647
      dyz     :     0.006394
      dx2y2   :     0.012507
      dxy     :     0.007281

 17 C s       :     3.130998  s :     3.130998
      pz      :     0.959295  p :     2.777554
      px      :     0.885367
      py      :     0.932892
      dz2     :     0.005842  d :     0.069947
      dxz     :     0.010653
      dyz     :     0.009371
      dx2y2   :     0.019400
      dxy     :     0.024681

 18 C s       :     3.085428  s :     3.085428
      pz      :     0.913168  p :     2.696740
      px      :     0.855786
      py      :     0.927785
      dz2     :     0.004996  d :     0.059969
      dxz     :     0.009527
      dyz     :     0.007638
      dx2y2   :     0.018909
      dxy     :     0.018899

 19 C s       :     3.092664  s :     3.092664
      pz      :     0.907967  p :     2.691338
      px      :     0.880165
      py      :     0.903206
      dz2     :     0.004462  d :     0.060358
      dxz     :     0.008403
      dyz     :     0.008346
      dx2y2   :     0.019650
      dxy     :     0.019497

 20 C s       :     3.132210  s :     3.132210
      pz      :     0.995443  p :     2.709056
      px      :     0.901068
      py      :     0.812545
      dz2     :     0.004665  d :     0.040582
      dxz     :     0.006679
      dyz     :     0.005675
      dx2y2   :     0.012039
      dxy     :     0.011523

 21 C s       :     3.140434  s :     3.140434
      pz      :     0.980258  p :     2.758684
      px      :     0.893504
      py      :     0.884922
      dz2     :     0.004467  d :     0.039591
      dxz     :     0.006545
      dyz     :     0.005437
      dx2y2   :     0.011203
      dxy     :     0.011940

 22 C s       :     3.198884  s :     3.198884
      pz      :     0.933979  p :     2.888682
      px      :     1.007939
      py      :     0.946764
      dz2     :     0.002842  d :     0.034571
      dxz     :     0.003617
      dyz     :     0.005369
      dx2y2   :     0.011016
      dxy     :     0.011727

 23 H s       :     0.850520  s :     0.850520
      pz      :     0.002399  p :     0.012529
      px      :     0.006662
      py      :     0.003469

 24 C s       :     3.142684  s :     3.142684
      pz      :     0.994977  p :     2.748018
      px      :     0.864295
      py      :     0.888746
      dz2     :     0.003320  d :     0.039831
      dxz     :     0.005518
      dyz     :     0.005941
      dx2y2   :     0.011750
      dxy     :     0.013301

 25 C s       :     3.179202  s :     3.179202
      pz      :     0.964146  p :     2.920776
      px      :     0.965749
      py      :     0.990882
      dz2     :     0.002766  d :     0.034756
      dxz     :     0.007083
      dyz     :     0.004075
      dx2y2   :     0.011063
      dxy     :     0.009770

 26 H s       :     0.860884  s :     0.860884
      pz      :     0.003380  p :     0.012373
      px      :     0.001867
      py      :     0.007126

 27 C s       :     3.143041  s :     3.143041
      pz      :     0.981959  p :     2.769915
      px      :     0.902404
      py      :     0.885552
      dz2     :     0.004297  d :     0.039291
      dxz     :     0.007012
      dyz     :     0.005514
      dx2y2   :     0.011538
      dxy     :     0.010929

 28 C s       :     3.137208  s :     3.137208
      pz      :     0.939090  p :     2.744902
      px      :     0.862300
      py      :     0.943512
      dz2     :     0.004496  d :     0.041191
      dxz     :     0.007161
      dyz     :     0.005587
      dx2y2   :     0.012504
      dxy     :     0.011443

 29 C s       :     3.145572  s :     3.145572
      pz      :     1.001157  p :     2.764073
      px      :     0.847331
      py      :     0.915585
      dz2     :     0.003241  d :     0.039482
      dxz     :     0.006171
      dyz     :     0.005223
      dx2y2   :     0.013553
      dxy     :     0.011294

 30 C s       :     3.124118  s :     3.124118
      pz      :     0.822589  p :     2.711279
      px      :     0.902391
      py      :     0.986299
      dz2     :     0.008684  d :     0.040556
      dxz     :     0.013090
      dyz     :     0.007004
      dx2y2   :     0.005641
      dxy     :     0.006136

 31 C s       :     3.165049  s :     3.165049
      pz      :     0.981348  p :     2.911666
      px      :     0.965654
      py      :     0.964665
      dz2     :     0.002924  d :     0.035143
      dxz     :     0.006702
      dyz     :     0.002488
      dx2y2   :     0.013026
      dxy     :     0.010002

 32 H s       :     0.896633  s :     0.896633
      pz      :     0.002783  p :     0.012150
      px      :     0.001802
      py      :     0.007565

 33 C s       :     3.130246  s :     3.130246
      pz      :     0.921497  p :     2.729110
      px      :     0.909181
      py      :     0.898432
      dz2     :     0.008843  d :     0.040446
      dxz     :     0.005964
      dyz     :     0.008778
      dx2y2   :     0.008825
      dxy     :     0.008035

 34 C s       :     3.180263  s :     3.180263
      pz      :     1.013832  p :     2.935956
      px      :     0.967902
      py      :     0.954223
      dz2     :     0.002903  d :     0.035006
      dxz     :     0.003519
      dyz     :     0.005345
      dx2y2   :     0.011132
      dxy     :     0.012108

 35 H s       :     0.902010  s :     0.902010
      pz      :     0.002719  p :     0.012107
      px      :     0.006210
      py      :     0.003178

 36 C s       :     3.159131  s :     3.159131
      pz      :     0.997699  p :     2.905790
      px      :     0.971741
      py      :     0.936350
      dz2     :     0.003098  d :     0.033417
      dxz     :     0.004247
      dyz     :     0.004533
      dx2y2   :     0.010612
      dxy     :     0.010926

 37 H s       :     0.857678  s :     0.857678
      pz      :     0.002776  p :     0.012326
      px      :     0.005393
      py      :     0.004158

 38 C s       :     3.185727  s :     3.185727
      pz      :     0.920854  p :     2.860886
      px      :     0.940305
      py      :     0.999727
      dz2     :     0.003965  d :     0.035707
      dxz     :     0.006314
      dyz     :     0.003090
      dx2y2   :     0.012009
      dxy     :     0.010328

 39 H s       :     0.860126  s :     0.860126
      pz      :     0.002443  p :     0.012608
      px      :     0.001962
      py      :     0.008203

 40 C s       :     3.188768  s :     3.188768
      pz      :     0.916399  p :     2.895647
      px      :     0.945471
      py      :     1.033778
      dz2     :     0.009263  d :     0.049238
      dxz     :     0.009169
      dyz     :     0.010594
      dx2y2   :     0.010132
      dxy     :     0.010080

 41 C s       :     3.119549  s :     3.119549
      pz      :     0.941506  p :     2.687412
      px      :     0.845672
      py      :     0.900234
      dz2     :     0.008171  d :     0.041299
      dxz     :     0.007484
      dyz     :     0.006749
      dx2y2   :     0.009998
      dxy     :     0.008897

 42 C s       :     3.181516  s :     3.181516
      pz      :     1.006305  p :     2.935636
      px      :     0.941513
      py      :     0.987818
      dz2     :     0.002865  d :     0.035023
      dxz     :     0.006749
      dyz     :     0.003994
      dx2y2   :     0.011718
      dxy     :     0.009698

 43 H s       :     0.899280  s :     0.899280
      pz      :     0.003383  p :     0.012075
      px      :     0.001748
      py      :     0.006944

 44 C s       :     3.138847  s :     3.138847
      pz      :     0.988067  p :     2.795638
      px      :     0.853060
      py      :     0.954511
      dz2     :     0.006949  d :     0.069752
      dxz     :     0.013328
      dyz     :     0.007316
      dx2y2   :     0.019634
      dxy     :     0.022525

 45 C s       :     3.128212  s :     3.128212
      pz      :     0.955626  p :     2.702711
      px      :     0.901505
      py      :     0.845580
      dz2     :     0.005552  d :     0.041806
      dxz     :     0.007913
      dyz     :     0.006106
      dx2y2   :     0.012316
      dxy     :     0.009918

 46 C s       :     3.174959  s :     3.174959
      pz      :     0.954662  p :     2.875380
      px      :     0.960680
      py      :     0.960039
      dz2     :     0.003685  d :     0.034963
      dxz     :     0.004771
      dyz     :     0.005280
      dx2y2   :     0.010767
      dxy     :     0.010461

 47 H s       :     0.868949  s :     0.868949
      pz      :     0.002546  p :     0.012358
      px      :     0.006867
      py      :     0.002945

 48 C s       :     3.081076  s :     3.081076
      pz      :     0.936982  p :     2.709060
      px      :     0.847190
      py      :     0.924888
      dz2     :     0.005497  d :     0.059438
      dxz     :     0.009387
      dyz     :     0.008113
      dx2y2   :     0.020283
      dxy     :     0.016158

 49 C s       :     3.150417  s :     3.150417
      pz      :     0.994238  p :     2.918436
      px      :     0.970269
      py      :     0.953929
      dz2     :     0.003467  d :     0.033733
      dxz     :     0.004464
      dyz     :     0.004505
      dx2y2   :     0.010504
      dxy     :     0.010792

 50 H s       :     0.882357  s :     0.882357
      pz      :     0.002707  p :     0.012294
      px      :     0.006003
      py      :     0.003584

 51 C s       :     3.135702  s :     3.135702
      pz      :     0.946175  p :     2.748363
      px      :     0.894244
      py      :     0.907944
      dz2     :     0.003301  d :     0.041065
      dxz     :     0.005928
      dyz     :     0.006142
      dx2y2   :     0.012644
      dxy     :     0.013050

 52 C s       :     3.188375  s :     3.188375
      pz      :     0.974886  p :     2.923817
      px      :     0.978682
      py      :     0.970249
      dz2     :     0.003963  d :     0.035825
      dxz     :     0.003948
      dyz     :     0.005898
      dx2y2   :     0.009779
      dxy     :     0.012237

 53 C s       :     3.082768  s :     3.082768
      pz      :     0.935715  p :     2.711907
      px      :     0.961802
      py      :     0.814390
      dz2     :     0.004888  d :     0.059465
      dxz     :     0.006613
      dyz     :     0.010523
      dx2y2   :     0.016787
      dxy     :     0.020653

 54 C s       :     3.191736  s :     3.191736
      pz      :     0.939742  p :     2.902997
      px      :     1.009965
      py      :     0.953290
      dz2     :     0.008414  d :     0.048986
      dxz     :     0.011637
      dyz     :     0.007424
      dx2y2   :     0.010497
      dxy     :     0.011014

 55 C s       :     3.127586  s :     3.127586
      pz      :     0.966200  p :     2.754005
      px      :     0.924388
      py      :     0.863416
      dz2     :     0.003894  d :     0.039748
      dxz     :     0.005539
      dyz     :     0.006458
      dx2y2   :     0.011036
      dxy     :     0.012821

 56 C s       :     3.143688  s :     3.143688
      pz      :     0.939118  p :     2.869561
      px      :     0.999888
      py      :     0.930554
      dz2     :     0.006685  d :     0.033933
      dxz     :     0.006656
      dyz     :     0.005134
      dx2y2   :     0.008419
      dxy     :     0.007039

 57 H s       :     0.844469  s :     0.844469
      pz      :     0.002285  p :     0.012566
      px      :     0.007996
      py      :     0.002286

 58 C s       :     3.169436  s :     3.169436
      pz      :     0.949040  p :     2.870485
      px      :     0.940729
      py      :     0.980716
      dz2     :     0.002888  d :     0.035882
      dxz     :     0.007366
      dyz     :     0.004025
      dx2y2   :     0.011417
      dxy     :     0.010186

 59 H s       :     0.871595  s :     0.871595
      pz      :     0.003211  p :     0.012344
      px      :     0.001917
      py      :     0.007217

 60 C s       :     3.145334  s :     3.145334
      pz      :     1.002672  p :     2.872873
      px      :     0.880442
      py      :     0.989759
      dz2     :     0.004335  d :     0.033992
      dxz     :     0.008247
      dyz     :     0.004854
      dx2y2   :     0.007838
      dxy     :     0.008719

 61 H s       :     0.844556  s :     0.844556
      pz      :     0.004929  p :     0.012416
      px      :     0.002294
      py      :     0.005192

 62 C s       :     3.180740  s :     3.180740
      pz      :     0.968694  p :     2.866428
      px      :     0.925311
      py      :     0.972424
      dz2     :     0.008524  d :     0.050489
      dxz     :     0.011938
      dyz     :     0.006676
      dx2y2   :     0.011138
      dxy     :     0.012214

 63 C s       :     3.189146  s :     3.189146
      pz      :     1.028509  p :     2.897089
      px      :     0.838708
      py      :     1.029872
      dz2     :     0.008572  d :     0.048878
      dxz     :     0.010920
      dyz     :     0.005869
      dx2y2   :     0.012345
      dxy     :     0.011172

 64 C s       :     3.195255  s :     3.195255
      pz      :     1.005449  p :     2.882145
      px      :     0.969752
      py      :     0.906944
      dz2     :     0.009689  d :     0.049503
      dxz     :     0.007057
      dyz     :     0.011496
      dx2y2   :     0.009874
      dxy     :     0.011387

 65 C s       :     3.209205  s :     3.209205
      pz      :     0.997930  p :     2.986910
      px      :     1.010944
      py      :     0.978036
      dz2     :     0.008372  d :     0.038929
      dxz     :     0.006825
      dyz     :     0.007991
      dx2y2   :     0.009396
      dxy     :     0.006345

 66 H s       :     0.884833  s :     0.884833
      pz      :     0.002339  p :     0.011239
      px      :     0.006061
      py      :     0.002839

 67 H s       :     0.863517  s :     0.863517
      pz      :     0.005402  p :     0.011309
      px      :     0.002789
      py      :     0.003118

 68 C s       :     3.209894  s :     3.209894
      pz      :     0.991481  p :     2.988580
      px      :     0.968456
      py      :     1.028643
      dz2     :     0.008910  d :     0.038735
      dxz     :     0.009595
      dyz     :     0.004346
      dx2y2   :     0.009394
      dxy     :     0.006490

 69 H s       :     0.883952  s :     0.883952
      pz      :     0.002207  p :     0.011225
      px      :     0.002075
      py      :     0.006943

 70 H s       :     0.866257  s :     0.866257
      pz      :     0.005635  p :     0.011311
      px      :     0.002948
      py      :     0.002728

 71 C s       :     3.149278  s :     3.149278
      pz      :     1.005777  p :     2.862086
      px      :     0.979921
      py      :     0.876387
      dz2     :     0.004964  d :     0.033726
      dxz     :     0.005548
      dyz     :     0.008125
      dx2y2   :     0.007206
      dxy     :     0.007884

 72 H s       :     0.835868  s :     0.835868
      pz      :     0.005736  p :     0.012444
      px      :     0.004985
      py      :     0.001724

 73 C s       :     3.140241  s :     3.140241
      pz      :     0.828399  p :     2.734988
      px      :     1.001545
      py      :     0.905044
      dz2     :     0.008291  d :     0.041309
      dxz     :     0.006017
      dyz     :     0.015531
      dx2y2   :     0.005551
      dxy     :     0.005920

 74 C s       :     3.127809  s :     3.127809
      pz      :     0.951416  p :     2.756074
      px      :     0.899321
      py      :     0.905338
      dz2     :     0.004531  d :     0.039832
      dxz     :     0.005324
      dyz     :     0.006568
      dx2y2   :     0.011354
      dxy     :     0.012055

 75 C s       :     3.185965  s :     3.185965
      pz      :     0.846461  p :     2.888267
      px      :     1.015979
      py      :     1.025827
      dz2     :     0.013713  d :     0.049359
      dxz     :     0.013889
      dyz     :     0.008286
      dx2y2   :     0.006727
      dxy     :     0.006744

 76 C s       :     3.143175  s :     3.143175
      pz      :     0.930274  p :     2.866852
      px      :     0.971017
      py      :     0.965561
      dz2     :     0.006937  d :     0.033660
      dxz     :     0.005651
      dyz     :     0.007059
      dx2y2   :     0.006587
      dxy     :     0.007427

 77 H s       :     0.840846  s :     0.840846
      pz      :     0.002466  p :     0.012556
      px      :     0.004171
      py      :     0.005918

 78 C s       :     3.187172  s :     3.187172
      pz      :     0.866420  p :     2.892626
      px      :     1.039429
      py      :     0.986777
      dz2     :     0.013202  d :     0.049375
      dxz     :     0.007459
      dyz     :     0.015377
      dx2y2   :     0.005907
      dxy     :     0.007430

 79 C s       :     3.208734  s :     3.208734
      pz      :     1.043977  p :     2.989791
      px      :     0.996294
      py      :     0.949520
      dz2     :     0.009769  d :     0.038765
      dxz     :     0.006355
      dyz     :     0.005412
      dx2y2   :     0.007140
      dxy     :     0.010088

 80 H s       :     0.884109  s :     0.884109
      pz      :     0.003353  p :     0.011240
      px      :     0.004752
      py      :     0.003134

 81 C s       :     3.143609  s :     3.143609
      pz      :     0.962719  p :     2.872354
      px      :     0.999172
      py      :     0.910463
      dz2     :     0.008724  d :     0.033547
      dxz     :     0.003911
      dyz     :     0.010448
      dx2y2   :     0.004966
      dxy     :     0.005497

 82 H s       :     0.844222  s :     0.844222
      pz      :     0.006467  p :     0.012430
      px      :     0.002677
      py      :     0.003286

 83 C s       :     3.180677  s :     3.180677
      pz      :     0.967860  p :     2.853897
      px      :     1.015475
      py      :     0.870562
      dz2     :     0.009275  d :     0.050561
      dxz     :     0.006670
      dyz     :     0.012377
      dx2y2   :     0.011729
      dxy     :     0.010509

 84 C s       :     3.184364  s :     3.184364
      pz      :     0.898355  p :     2.877908
      px      :     0.964808
      py      :     1.014745
      dz2     :     0.012354  d :     0.049496
      dxz     :     0.014852
      dyz     :     0.008440
      dx2y2   :     0.006958
      dxy     :     0.006892

 85 C s       :     3.183123  s :     3.183123
      pz      :     1.017218  p :     2.863965
      px      :     1.027993
      py      :     0.818754
      dz2     :     0.012029  d :     0.050225
      dxz     :     0.007695
      dyz     :     0.014564
      dx2y2   :     0.008344
      dxy     :     0.007593

 86 C s       :     3.141204  s :     3.141204
      pz      :     0.984448  p :     2.871676
      px      :     0.899985
      py      :     0.987243
      dz2     :     0.008516  d :     0.033606
      dxz     :     0.009568
      dyz     :     0.004346
      dx2y2   :     0.005422
      dxy     :     0.005754

 87 H s       :     0.842817  s :     0.842817
      pz      :     0.007387  p :     0.012443
      px      :     0.002228
      py      :     0.002829

 88 C s       :     3.189463  s :     3.189463
      pz      :     0.873926  p :     2.879521
      px      :     1.029289
      py      :     0.976306
      dz2     :     0.012925  d :     0.049535
      dxz     :     0.007451
      dyz     :     0.015677
      dx2y2   :     0.006044
      dxy     :     0.007439

 89 C s       :     3.209169  s :     3.209169
      pz      :     1.035644  p :     2.986849
      px      :     0.994933
      py      :     0.956272
      dz2     :     0.012210  d :     0.038895
      dxz     :     0.004269
      dyz     :     0.004998
      dx2y2   :     0.006923
      dxy     :     0.010495

 90 C s       :     3.143428  s :     3.143428
      pz      :     0.967538  p :     2.873963
      px      :     0.998747
      py      :     0.907678
      dz2     :     0.008678  d :     0.033574
      dxz     :     0.003741
      dyz     :     0.010529
      dx2y2   :     0.005113
      dxy     :     0.005513

 91 H s       :     0.844394  s :     0.844394
      pz      :     0.006734  p :     0.012416
      px      :     0.002541
      py      :     0.003141

 92 C s       :     3.142185  s :     3.142185
      pz      :     0.944803  p :     2.872393
      px      :     0.942195
      py      :     0.985396
      dz2     :     0.008699  d :     0.033573
      dxz     :     0.009734
      dyz     :     0.005030
      dx2y2   :     0.005308
      dxy     :     0.004803

 93 H s       :     0.842685  s :     0.842685
      pz      :     0.005582  p :     0.012446
      px      :     0.004304
      py      :     0.002559

 94 C s       :     3.183879  s :     3.183879
      pz      :     1.014823  p :     2.861015
      px      :     0.852815
      py      :     0.993377
      dz2     :     0.011920  d :     0.050365
      dxz     :     0.013865
      dyz     :     0.008476
      dx2y2   :     0.007959
      dxy     :     0.008144

 95 H s       :     0.900535  s :     0.900535
      pz      :     0.002513  p :     0.011960
      px      :     0.005755
      py      :     0.003692

 96 H s       :     0.886009  s :     0.886009
      pz      :     0.002307  p :     0.011225
      px      :     0.005547
      py      :     0.003371

 97 H s       :     0.863827  s :     0.863827
      pz      :     0.006936  p :     0.011313
      px      :     0.002212
      py      :     0.002165

 98 H s       :     0.865626  s :     0.865626
      pz      :     0.006630  p :     0.011320
      px      :     0.002524
      py      :     0.002166

 99 C s       :     3.149785  s :     3.149785
      pz      :     0.987975  p :     2.895361
      px      :     0.953417
      py      :     0.953969
      dz2     :     0.005065  d :     0.039889
      dxz     :     0.006944
      dyz     :     0.005469
      dx2y2   :     0.011547
      dxy     :     0.010865

100 C s       :     3.134041  s :     3.134041
      pz      :     1.042854  p :     2.938250
      px      :     0.983543
      py      :     0.911853
      dz2     :     0.005091  d :     0.039088
      dxz     :     0.006331
      dyz     :     0.005064
      dx2y2   :     0.011161
      dxy     :     0.011442


SPIN
  0 Cls       :    -0.000000  s :    -0.000000
      pz      :    -0.000000  p :    -0.000000
      px      :    -0.000000
      py      :     0.000000
      dz2     :    -0.000000  d :    -0.000000
      dxz     :    -0.000000
      dyz     :    -0.000000
      dx2y2   :    -0.000000
      dxy     :    -0.000000

  1 Cls       :     0.000000  s :     0.000000
      pz      :     0.000000  p :     0.000000
      px      :     0.000000
      py      :     0.000000
      dz2     :     0.000000  d :     0.000000
      dxz     :     0.000000
      dyz     :     0.000000
      dx2y2   :     0.000000
      dxy     :     0.000000

  2 Cls       :    -0.000000  s :    -0.000000
      pz      :     0.000000  p :    -0.000000
      px      :    -0.000000
      py      :     0.000000
      dz2     :    -0.000000  d :    -0.000000
      dxz     :    -0.000000
      dyz     :    -0.000000
      dx2y2   :    -0.000000
      dxy     :    -0.000000

  3 Cls       :    -0.000000  s :    -0.000000
      pz      :    -0.000000  p :    -0.000000
      px      :    -0.000000
      py      :     0.000000
      dz2     :    -0.000000  d :    -0.000000
      dxz     :    -0.000000
      dyz     :    -0.000000
      dx2y2   :    -0.000000
      dxy     :    -0.000000

  4 Cls       :    -0.000000  s :    -0.000000
      pz      :     0.000000  p :     0.000000
      px      :     0.000000
      py      :     0.000000
      dz2     :     0.000000  d :     0.000000
      dxz     :    -0.000000
      dyz     :     0.000000
      dx2y2   :     0.000000
      dxy     :     0.000000

  5 Cls       :    -0.000000  s :    -0.000000
      pz      :     0.000000  p :     0.000000
      px      :     0.000000
      py      :     0.000000
      dz2     :     0.000000  d :     0.000000
      dxz     :     0.000000
      dyz     :    -0.000000
      dx2y2   :     0.000000
      dxy     :     0.000000

  6 Cls       :     0.000000  s :     0.000000
      pz      :    -0.000000  p :    -0.000000
      px      :    -0.000000
      py      :    -0.000000
      dz2     :     0.000000  d :    -0.000000
      dxz     :     0.000000
      dyz     :    -0.000000
      dx2y2   :    -0.000000
      dxy     :    -0.000000

  7 Cls       :    -0.000000  s :    -0.000000
      pz      :     0.000000  p :     0.000000
      px      :     0.000000
      py      :    -0.000000
      dz2     :     0.000000  d :     0.000000
      dxz     :     0.000000
      dyz     :     0.000000
      dx2y2   :    -0.000000
      dxy     :     0.000000

  8 Cls       :     0.000000  s :     0.000000
      pz      :     0.000000  p :     0.000000
      px      :    -0.000000
      py      :     0.000000
      dz2     :     0.000000  d :     0.000000
      dxz     :     0.000000
      dyz     :     0.000000
      dx2y2   :     0.000000
      dxy     :     0.000000

  9 Cls       :    -0.000000  s :    -0.000000
      pz      :    -0.000000  p :     0.000000
      px      :     0.000000
      py      :     0.000000
      dz2     :    -0.000000  d :     0.000000
      dxz     :     0.000000
      dyz     :     0.000000
      dx2y2   :     0.000000
      dxy     :     0.000000

 10 Cls       :     0.000000  s :     0.000000
      pz      :     0.000000  p :    -0.000000
      px      :    -0.000000
      py      :    -0.000000
      dz2     :     0.000000  d :    -0.000000
      dxz     :    -0.000000
      dyz     :    -0.000000
      dx2y2   :    -0.000000
      dxy     :    -0.000000

 11 Cls       :     0.000000  s :     0.000000
      pz      :    -0.000000  p :    -0.000000
      px      :    -0.000000
      py      :     0.000000
      dz2     :    -0.000000  d :    -0.000000
      dxz     :    -0.000000
      dyz     :    -0.000000
      dx2y2   :    -0.000000
      dxy     :    -0.000000

 12 Cls       :    -0.000000  s :    -0.000000
      pz      :     0.000000  p :     0.000000
      px      :     0.000000
      py      :    -0.000000
      dz2     :     0.000000  d :     0.000000
      dxz     :    -0.000000
      dyz     :    -0.000000
      dx2y2   :     0.000000
      dxy     :     0.000000

 13 Cls       :     0.000000  s :     0.000000
      pz      :     0.000000  p :    -0.000000
      px      :     0.000000
      py      :    -0.000000
      dz2     :     0.000000  d :    -0.000000
      dxz     :    -0.000000
      dyz     :    -0.000000
      dx2y2   :    -0.000000
      dxy     :    -0.000000

 14 N s       :     0.000000  s :     0.000000
      pz      :     0.000000  p :     0.000000
      px      :     0.000000
      py      :    -0.000000
      dz2     :    -0.000000  d :    -0.000000
      dxz     :    -0.000000
      dyz     :    -0.000000
      dx2y2   :    -0.000000
      dxy     :    -0.000000

 15 N s       :    -0.000000  s :    -0.000000
      pz      :    -0.000000  p :    -0.000000
      px      :    -0.000000
      py      :     0.000000
      dz2     :    -0.000000  d :     0.000000
      dxz     :     0.000000
      dyz     :     0.000000
      dx2y2   :    -0.000000
      dxy     :     0.000000

 16 N s       :    -0.000000  s :    -0.000000
      pz      :    -0.000000  p :     0.000000
      px      :    -0.000000
      py      :     0.000000
      dz2     :     0.000000  d :     0.000000
      dxz     :     0.000000
      dyz     :     0.000000
      dx2y2   :     0.000000
      dxy     :     0.000000

 17 C s       :    -0.000000  s :    -0.000000
      pz      :    -0.000000  p :    -0.000000
      px      :    -0.000000
      py      :    -0.000000
      dz2     :     0.000000  d :     0.000000
      dxz     :     0.000000
      dyz     :     0.000000
      dx2y2   :    -0.000000
      dxy     :     0.000000

 18 C s       :     0.000000  s :     0.000000
      pz      :     0.000000  p :     0.000000
      px      :     0.000000
      py      :     0.000000
      dz2     :    -0.000000  d :    -0.000000
      dxz     :    -0.000000
      dyz     :    -0.000000
      dx2y2   :     0.000000
      dxy     :     0.000000

 19 C s       :    -0.000000  s :    -0.000000
      pz      :    -0.000000  p :    -0.000000
      px      :    -0.000000
      py      :    -0.000000
      dz2     :     0.000000  d :     0.000000
      dxz     :     0.000000
      dyz     :     0.000000
      dx2y2   :    -0.000000
      dxy     :    -0.000000

 20 C s       :     0.000000  s :     0.000000
      pz      :     0.000000  p :     0.000000
      px      :     0.000000
      py      :     0.000000
      dz2     :    -0.000000  d :    -0.000000
      dxz     :    -0.000000
      dyz     :    -0.000000
      dx2y2   :    -0.000000
      dxy     :    -0.000000

 21 C s       :     0.000000  s :     0.000000
      pz      :     0.000000  p :     0.000000
      px      :    -0.000000
      py      :     0.000000
      dz2     :    -0.000000  d :    -0.000000
      dxz     :    -0.000000
      dyz     :    -0.000000
      dx2y2   :    -0.000000
      dxy     :     0.000000

 22 C s       :     0.000000  s :     0.000000
      pz      :     0.000000  p :     0.000000
      px      :     0.000000
      py      :     0.000000
      dz2     :    -0.000000  d :    -0.000000
      dxz     :    -0.000000
      dyz     :    -0.000000
      dx2y2   :     0.000000
      dxy     :     0.000000

 23 H s       :     0.000000  s :     0.000000
      pz      :     0.000000  p :     0.000000
      px      :     0.000000
      py      :     0.000000

 24 C s       :    -0.000000  s :    -0.000000
      pz      :    -0.000000  p :    -0.000000
      px      :    -0.000000
      py      :    -0.000000
      dz2     :     0.000000  d :     0.000000
      dxz     :     0.000000
      dyz     :     0.000000
      dx2y2   :    -0.000000
      dxy     :     0.000000

 25 C s       :     0.000000  s :     0.000000
      pz      :    -0.000000  p :    -0.000000
      px      :    -0.000000
      py      :    -0.000000
      dz2     :     0.000000  d :     0.000000
      dxz     :     0.000000
      dyz     :    -0.000000
      dx2y2   :     0.000000
      dxy     :    -0.000000

 26 H s       :     0.000000  s :     0.000000
      pz      :    -0.000000  p :    -0.000000
      px      :     0.000000
      py      :    -0.000000

 27 C s       :    -0.000000  s :    -0.000000
      pz      :     0.000000  p :     0.000000
      px      :    -0.000000
      py      :     0.000000
      dz2     :    -0.000000  d :    -0.000000
      dxz     :    -0.000000
      dyz     :    -0.000000
      dx2y2   :    -0.000000
      dxy     :    -0.000000

 28 C s       :     0.000000  s :     0.000000
      pz      :    -0.000000  p :    -0.000000
      px      :    -0.000000
      py      :    -0.000000
      dz2     :     0.000000  d :     0.000000
      dxz     :     0.000000
      dyz     :     0.000000
      dx2y2   :     0.000000
      dxy     :    -0.000000

 29 C s       :    -0.000000  s :    -0.000000
      pz      :    -0.000000  p :    -0.000000
      px      :     0.000000
      py      :    -0.000000
      dz2     :    -0.000000  d :     0.000000
      dxz     :     0.000000
      dyz     :     0.000000
      dx2y2   :     0.000000
      dxy     :    -0.000000

 30 C s       :     0.000000  s :     0.000000
      pz      :     0.000000  p :     0.000000
      px      :     0.000000
      py      :     0.000000
      dz2     :    -0.000000  d :    -0.000000
      dxz     :    -0.000000
      dyz     :    -0.000000
      dx2y2   :    -0.000000
      dxy     :    -0.000000

 31 C s       :     0.000000  s :     0.000000
      pz      :     0.000000  p :     0.000000
      px      :     0.000000
      py      :     0.000000
      dz2     :     0.000000  d :    -0.000000
      dxz     :    -0.000000
      dyz     :    -0.000000
      dx2y2   :    -0.000000
      dxy     :    -0.000000

 32 H s       :     0.000000  s :     0.000000
      pz      :     0.000000  p :     0.000000
      px      :     0.000000
      py      :     0.000000

 33 C s       :     0.000000  s :     0.000000
      pz      :     0.000000  p :     0.000000
      px      :     0.000000
      py      :     0.000000
      dz2     :    -0.000000  d :    -0.000000
      dxz     :    -0.000000
      dyz     :    -0.000000
      dx2y2   :    -0.000000
      dxy     :    -0.000000

 34 C s       :    -0.000000  s :    -0.000000
      pz      :    -0.000000  p :    -0.000000
      px      :    -0.000000
      py      :     0.000000
      dz2     :    -0.000000  d :     0.000000
      dxz     :     0.000000
      dyz     :     0.000000
      dx2y2   :    -0.000000
      dxy     :     0.000000

 35 H s       :    -0.000000  s :    -0.000000
      pz      :    -0.000000  p :     0.000000
      px      :     0.000000
      py      :     0.000000

 36 C s       :     0.000000  s :     0.000000
      pz      :     0.000000  p :     0.000000
      px      :     0.000000
      py      :     0.000000
      dz2     :    -0.000000  d :    -0.000000
      dxz     :    -0.000000
      dyz     :    -0.000000
      dx2y2   :    -0.000000
      dxy     :     0.000000

 37 H s       :    -0.000000  s :    -0.000000
      pz      :     0.000000  p :     0.000000
      px      :     0.000000
      py      :     0.000000

 38 C s       :    -0.000000  s :    -0.000000
      pz      :    -0.000000  p :    -0.000000
      px      :    -0.000000
      py      :    -0.000000
      dz2     :     0.000000  d :     0.000000
      dxz     :     0.000000
      dyz     :     0.000000
      dx2y2   :     0.000000
      dxy     :    -0.000000

 39 H s       :     0.000000  s :     0.000000
      pz      :    -0.000000  p :    -0.000000
      px      :    -0.000000
      py      :    -0.000000

 40 C s       :     0.000000  s :     0.000000
      pz      :    -0.000000  p :    -0.000000
      px      :    -0.000000
      py      :    -0.000000
      dz2     :     0.000000  d :     0.000000
      dxz     :     0.000000
      dyz     :     0.000000
      dx2y2   :     0.000000
      dxy     :     0.000000

 41 C s       :    -0.000000  s :    -0.000000
      pz      :    -0.000000  p :    -0.000000
      px      :    -0.000000
      py      :    -0.000000
      dz2     :     0.000000  d :     0.000000
      dxz     :     0.000000
      dyz     :     0.000000
      dx2y2   :     0.000000
      dxy     :     0.000000

 42 C s       :    -0.000000  s :    -0.000000
      pz      :     0.000000  p :    -0.000000
      px      :    -0.000000
      py      :    -0.000000
      dz2     :     0.000000  d :    -0.000000
      dxz     :    -0.000000
      dyz     :     0.000000
      dx2y2   :     0.000000
      dxy     :    -0.000000

 43 H s       :     0.000000  s :     0.000000
      pz      :    -0.000000  p :    -0.000000
      px      :    -0.000000
      py      :    -0.000000

 44 C s       :     0.000000  s :     0.000000
      pz      :     0.000000  p :     0.000000
      px      :     0.000000
      py      :     0.000000
      dz2     :    -0.000000  d :    -0.000000
      dxz     :    -0.000000
      dyz     :    -0.000000
      dx2y2   :     0.000000
      dxy     :    -0.000000

 45 C s       :    -0.000000  s :    -0.000000
      pz      :    -0.000000  p :    -0.000000
      px      :    -0.000000
      py      :    -0.000000
      dz2     :     0.000000  d :     0.000000
      dxz     :     0.000000
      dyz     :     0.000000
      dx2y2   :     0.000000
      dxy     :     0.000000

 46 C s       :    -0.000000  s :    -0.000000
      pz      :    -0.000000  p :    -0.000000
      px      :     0.000000
      py      :    -0.000000
      dz2     :     0.000000  d :     0.000000
      dxz     :     0.000000
      dyz     :     0.000000
      dx2y2   :    -0.000000
      dxy     :     0.000000

 47 H s       :     0.000000  s :     0.000000
      pz      :    -0.000000  p :    -0.000000
      px      :     0.000000
      py      :    -0.000000

 48 C s       :     0.000000  s :     0.000000
      pz      :     0.000000  p :    -0.000000
      px      :     0.000000
      py      :    -0.000000
      dz2     :    -0.000000  d :     0.000000
      dxz     :    -0.000000
      dyz     :    -0.000000
      dx2y2   :     0.000000
      dxy     :     0.000000

 49 C s       :    -0.000000  s :    -0.000000
      pz      :    -0.000000  p :    -0.000000
      px      :     0.000000
      py      :    -0.000000
      dz2     :     0.000000  d :     0.000000
      dxz     :     0.000000
      dyz     :     0.000000
      dx2y2   :     0.000000
      dxy     :     0.000000

 50 H s       :     0.000000  s :     0.000000
      pz      :    -0.000000  p :    -0.000000
      px      :     0.000000
      py      :    -0.000000

 51 C s       :     0.000000  s :     0.000000
      pz      :     0.000000  p :     0.000000
      px      :    -0.000000
      py      :     0.000000
      dz2     :    -0.000000  d :     0.000000
      dxz     :    -0.000000
      dyz     :    -0.000000
      dx2y2   :     0.000000
      dxy     :     0.000000

 52 C s       :     0.000000  s :     0.000000
      pz      :     0.000000  p :     0.000000
      px      :    -0.000000
      py      :     0.000000
      dz2     :    -0.000000  d :    -0.000000
      dxz     :    -0.000000
      dyz     :    -0.000000
      dx2y2   :     0.000000
      dxy     :    -0.000000

 53 C s       :    -0.000000  s :    -0.000000
      pz      :    -0.000000  p :     0.000000
      px      :    -0.000000
      py      :     0.000000
      dz2     :    -0.000000  d :    -0.000000
      dxz     :    -0.000000
      dyz     :    -0.000000
      dx2y2   :    -0.000000
      dxy     :    -0.000000

 54 C s       :     0.000000  s :     0.000000
      pz      :     0.000000  p :     0.000000
      px      :     0.000000
      py      :     0.000000
      dz2     :    -0.000000  d :    -0.000000
      dxz     :    -0.000000
      dyz     :    -0.000000
      dx2y2   :    -0.000000
      dxy     :    -0.000000

 55 C s       :     0.000000  s :     0.000000
      pz      :     0.000000  p :    -0.000000
      px      :    -0.000000
      py      :     0.000000
      dz2     :     0.000000  d :     0.000000
      dxz     :     0.000000
      dyz     :     0.000000
      dx2y2   :    -0.000000
      dxy     :    -0.000000

 56 C s       :    -0.000000  s :    -0.000000
      pz      :    -0.000000  p :    -0.000000
      px      :    -0.000000
      py      :    -0.000000
      dz2     :     0.000000  d :     0.000000
      dxz     :     0.000000
      dyz     :    -0.000000
      dx2y2   :     0.000000
      dxy     :     0.000000

 57 H s       :     0.000000  s :     0.000000
      pz      :    -0.000000  p :    -0.000000
      px      :     0.000000
      py      :    -0.000000

 58 C s       :     0.000000  s :     0.000000
      pz      :     0.000000  p :     0.000000
      px      :     0.000000
      py      :     0.000000
      dz2     :    -0.000000  d :    -0.000000
      dxz     :    -0.000000
      dyz     :    -0.000000
      dx2y2   :    -0.000000
      dxy     :     0.000000

 59 H s       :    -0.000000  s :    -0.000000
      pz      :     0.000000  p :     0.000000
      px      :    -0.000000
      py      :     0.000000

 60 C s       :    -0.000000  s :    -0.000000
      pz      :    -0.000000  p :    -0.000000
      px      :    -0.000000
      py      :    -0.000000
      dz2     :     0.000000  d :     0.000000
      dxz     :     0.000000
      dyz     :     0.000000
      dx2y2   :     0.000000
      dxy     :     0.000000

 61 H s       :     0.000000  s :     0.000000
      pz      :    -0.000000  p :    -0.000000
      px      :    -0.000000
      py      :    -0.000000

 62 C s       :     0.000000  s :     0.000000
      pz      :     0.000000  p :     0.000000
      px      :     0.000000
      py      :     0.000000
      dz2     :    -0.000000  d :    -0.000000
      dxz     :    -0.000000
      dyz     :    -0.000000
      dx2y2   :    -0.000000
      dxy     :    -0.000000

 63 C s       :     0.000000  s :     0.000000
      pz      :     0.000000  p :     0.000000
      px      :     0.000000
      py      :     0.000000
      dz2     :    -0.000000  d :    -0.000000
      dxz     :    -0.000000
      dyz     :    -0.000000
      dx2y2   :    -0.000000
      dxy     :     0.000000

 64 C s       :    -0.000000  s :    -0.000000
      pz      :    -0.000000  p :    -0.000000
      px      :    -0.000000
      py      :    -0.000000
      dz2     :     0.000000  d :     0.000000
      dxz     :     0.000000
      dyz     :     0.000000
      dx2y2   :    -0.000000
      dxy     :     0.000000

 65 C s       :    -0.000000  s :    -0.000000
      pz      :     0.000000  p :     0.000000
      px      :     0.000000
      py      :    -0.000000
      dz2     :     0.000000  d :     0.000000
      dxz     :     0.000000
      dyz     :    -0.000000
      dx2y2   :     0.000000
      dxy     :     0.000000

 66 H s       :     0.000000  s :     0.000000
      pz      :     0.000000  p :     0.000000
      px      :    -0.000000
      py      :     0.000000

 67 H s       :     0.000000  s :     0.000000
      pz      :     0.000000  p :    -0.000000
      px      :    -0.000000
      py      :    -0.000000

 68 C s       :    -0.000000  s :    -0.000000
      pz      :     0.000000  p :     0.000000
      px      :     0.000000
      py      :     0.000000
      dz2     :    -0.000000  d :    -0.000000
      dxz     :    -0.000000
      dyz     :     0.000000
      dx2y2   :    -0.000000
      dxy     :     0.000000

 69 H s       :     0.000000  s :     0.000000
      pz      :    -0.000000  p :    -0.000000
      px      :     0.000000
      py      :    -0.000000

 70 H s       :    -0.000000  s :    -0.000000
      pz      :    -0.000000  p :    -0.000000
      px      :     0.000000
      py      :     0.000000

 71 C s       :    -0.000000  s :    -0.000000
      pz      :     0.000000  p :     0.000000
      px      :     0.000000
      py      :     0.000000
      dz2     :    -0.000000  d :    -0.000000
      dxz     :    -0.000000
      dyz     :    -0.000000
      dx2y2   :    -0.000000
      dxy     :    -0.000000

 72 H s       :    -0.000000  s :    -0.000000
      pz      :     0.000000  p :     0.000000
      px      :     0.000000
      py      :    -0.000000

 73 C s       :    -0.000000  s :    -0.000000
      pz      :    -0.000000  p :    -0.000000
      px      :    -0.000000
      py      :    -0.000000
      dz2     :    -0.000000  d :     0.000000
      dxz     :     0.000000
      dyz     :     0.000000
      dx2y2   :     0.000000
      dxy     :     0.000000

 74 C s       :    -0.000000  s :    -0.000000
      pz      :    -0.000000  p :     0.000000
      px      :    -0.000000
      py      :     0.000000
      dz2     :     0.000000  d :     0.000000
      dxz     :     0.000000
      dyz     :    -0.000000
      dx2y2   :     0.000000
      dxy     :     0.000000

 75 C s       :     0.000000  s :     0.000000
      pz      :     0.000000  p :    -0.000000
      px      :    -0.000000
      py      :    -0.000000
      dz2     :     0.000000  d :     0.000000
      dxz     :    -0.000000
      dyz     :     0.000000
      dx2y2   :     0.000000
      dxy     :     0.000000

 76 C s       :    -0.000000  s :    -0.000000
      pz      :     0.000000  p :     0.000000
      px      :     0.000000
      py      :    -0.000000
      dz2     :    -0.000000  d :    -0.000000
      dxz     :    -0.000000
      dyz     :    -0.000000
      dx2y2   :    -0.000000
      dxy     :    -0.000000

 77 H s       :    -0.000000  s :    -0.000000
      pz      :     0.000000  p :     0.000000
      px      :     0.000000
      py      :     0.000000

 78 C s       :     0.000000  s :     0.000000
      pz      :     0.000000  p :     0.000000
      px      :     0.000000
      py      :    -0.000000
      dz2     :     0.000000  d :    -0.000000
      dxz     :    -0.000000
      dyz     :     0.000000
      dx2y2   :     0.000000
      dxy     :    -0.000000

 79 C s       :     0.000000  s :     0.000000
      pz      :    -0.000000  p :     0.000000
      px      :     0.000000
      py      :     0.000000
      dz2     :     0.000000  d :     0.000000
      dxz     :     0.000000
      dyz     :     0.000000
      dx2y2   :     0.000000
      dxy     :     0.000000

 80 H s       :     0.000000  s :     0.000000
      pz      :    -0.000000  p :     0.000000
      px      :     0.000000
      py      :    -0.000000

 81 C s       :     0.000000  s :     0.000000
      pz      :     0.000000  p :    -0.000000
      px      :    -0.000000
      py      :    -0.000000
      dz2     :     0.000000  d :     0.000000
      dxz     :     0.000000
      dyz     :     0.000000
      dx2y2   :     0.000000
      dxy     :     0.000000

 82 H s       :     0.000000  s :     0.000000
      pz      :    -0.000000  p :    -0.000000
      px      :    -0.000000
      py      :     0.000000

 83 C s       :    -0.000000  s :    -0.000000
      pz      :    -0.000000  p :    -0.000000
      px      :    -0.000000
      py      :    -0.000000
      dz2     :     0.000000  d :     0.000000
      dxz     :     0.000000
      dyz     :     0.000000
      dx2y2   :     0.000000
      dxy     :     0.000000

 84 C s       :    -0.000000  s :    -0.000000
      pz      :    -0.000000  p :    -0.000000
      px      :    -0.000000
      py      :    -0.000000
      dz2     :     0.000000  d :     0.000000
      dxz     :     0.000000
      dyz     :     0.000000
      dx2y2   :     0.000000
      dxy     :     0.000000

 85 C s       :     0.000000  s :     0.000000
      pz      :     0.000000  p :     0.000000
      px      :     0.000000
      py      :     0.000000
      dz2     :    -0.000000  d :    -0.000000
      dxz     :    -0.000000
      dyz     :     0.000000
      dx2y2   :    -0.000000
      dxy     :    -0.000000

 86 C s       :    -0.000000  s :    -0.000000
      pz      :    -0.000000  p :     0.000000
      px      :     0.000000
      py      :     0.000000
      dz2     :    -0.000000  d :    -0.000000
      dxz     :    -0.000000
      dyz     :    -0.000000
      dx2y2   :    -0.000000
      dxy     :    -0.000000

 87 H s       :    -0.000000  s :    -0.000000
      pz      :    -0.000000  p :    -0.000000
      px      :    -0.000000
      py      :     0.000000

 88 C s       :     0.000000  s :     0.000000
      pz      :     0.000000  p :     0.000000
      px      :     0.000000
      py      :     0.000000
      dz2     :    -0.000000  d :    -0.000000
      dxz     :    -0.000000
      dyz     :    -0.000000
      dx2y2   :     0.000000
      dxy     :    -0.000000

 89 C s       :     0.000000  s :     0.000000
      pz      :     0.000000  p :     0.000000
      px      :     0.000000
      py      :     0.000000
      dz2     :     0.000000  d :    -0.000000
      dxz     :    -0.000000
      dyz     :    -0.000000
      dx2y2   :    -0.000000
      dxy     :    -0.000000

 90 C s       :    -0.000000  s :    -0.000000
      pz      :     0.000000  p :    -0.000000
      px      :    -0.000000
      py      :    -0.000000
      dz2     :     0.000000  d :     0.000000
      dxz     :     0.000000
      dyz     :     0.000000
      dx2y2   :    -0.000000
      dxy     :     0.000000

 91 H s       :     0.000000  s :     0.000000
      pz      :    -0.000000  p :    -0.000000
      px      :    -0.000000
      py      :     0.000000

 92 C s       :    -0.000000  s :    -0.000000
      pz      :    -0.000000  p :     0.000000
      px      :     0.000000
      py      :     0.000000
      dz2     :    -0.000000  d :    -0.000000
      dxz     :    -0.000000
      dyz     :    -0.000000
      dx2y2   :    -0.000000
      dxy     :    -0.000000

 93 H s       :    -0.000000  s :    -0.000000
      pz      :     0.000000  p :     0.000000
      px      :     0.000000
      py      :     0.000000

 94 C s       :     0.000000  s :     0.000000
      pz      :    -0.000000  p :    -0.000000
      px      :    -0.000000
      py      :    -0.000000
      dz2     :     0.000000  d :     0.000000
      dxz     :    -0.000000
      dyz     :     0.000000
      dx2y2   :     0.000000
      dxy     :     0.000000

 95 H s       :     0.000000  s :     0.000000
      pz      :     0.000000  p :     0.000000
      px      :     0.000000
      py      :    -0.000000

 96 H s       :     0.000000  s :     0.000000
      pz      :     0.000000  p :     0.000000
      px      :     0.000000
      py      :     0.000000

 97 H s       :     0.000000  s :     0.000000
      pz      :     0.000000  p :     0.000000
      px      :    -0.000000
      py      :     0.000000

 98 H s       :     0.000000  s :     0.000000
      pz      :     0.000000  p :    -0.000000
      px      :     0.000000
      py      :    -0.000000

 99 C s       :    -0.000000  s :    -0.000000
      pz      :    -0.000000  p :    -0.000000
      px      :    -0.000000
      py      :    -0.000000
      dz2     :     0.000000  d :     0.000000
      dxz     :     0.000000
      dyz     :     0.000000
      dx2y2   :     0.000000
      dxy     :     0.000000

100 C s       :     0.000000  s :     0.000000
      pz      :     0.000000  p :     0.000000
      px      :     0.000000
      py      :     0.000000
      dz2     :    -0.000000  d :    -0.000000
      dxz     :    -0.000000
      dyz     :     0.000000
      dx2y2   :    -0.000000
      dxy     :    -0.000000



                     *******************************
                     * LOEWDIN POPULATION ANALYSIS *
                     *******************************

-------------------------------------------
LOEWDIN ATOMIC CHARGES AND SPIN POPULATIONS
-------------------------------------------
   0 Cl:    0.046071   -0.000000
   1 Cl:    0.032466    0.000000
   2 Cl:    0.061824   -0.000000
   3 Cl:    0.070179   -0.000000
   4 Cl:    0.060216    0.000000
   5 Cl:    0.057745    0.000000
   6 Cl:    0.063340   -0.000000
   7 Cl:    0.057729    0.000000
   8 Cl:    0.066273    0.000000
   9 Cl:    0.064702    0.000000
  10 Cl:    0.064972   -0.000000
  11 Cl:    0.069114   -0.000000
  12 Cl:    0.053014    0.000000
  13 Cl:    0.056743   -0.000000
  14 N :   -0.109237    0.000000
  15 N :   -0.106483   -0.000000
  16 N :   -0.115419   -0.000000
  17 C :   -0.016614   -0.000000
  18 C :    0.047617    0.000000
  19 C :    0.058066   -0.000000
  20 C :   -0.043025    0.000000
  21 C :   -0.031431    0.000000
  22 C :   -0.025737    0.000000
  23 H :    0.094173    0.000000
  24 C :   -0.029556   -0.000000
  25 C :   -0.040675   -0.000000
  26 H :    0.088363    0.000000
  27 C :   -0.027441    0.000000
  28 C :    0.001882   -0.000000
  29 C :   -0.027918   -0.000000
  30 C :   -0.041997    0.000000
  31 C :   -0.062601    0.000000
  32 H :    0.074995    0.000000
  33 C :   -0.044744    0.000000
  34 C :   -0.080888   -0.000000
  35 H :    0.074326    0.000000
  36 C :   -0.081516    0.000000
  37 H :    0.093859   -0.000000
  38 C :   -0.017806   -0.000000
  39 H :    0.091064    0.000000
  40 C :   -0.066821   -0.000000
  41 C :   -0.034080   -0.000000
  42 C :   -0.080495    0.000000
  43 H :    0.075416    0.000000
  44 C :   -0.032798    0.000000
  45 C :   -0.036641   -0.000000
  46 C :   -0.040496   -0.000000
  47 H :    0.088377    0.000000
  48 C :    0.025535    0.000000
  49 C :   -0.088493   -0.000000
  50 H :    0.083523    0.000000
  51 C :   -0.000833    0.000000
  52 C :   -0.054467    0.000000
  53 C :    0.024926    0.000000
  54 C :   -0.068868    0.000000
  55 C :   -0.027646    0.000000
  56 C :   -0.084154   -0.000000
  57 H :    0.100180    0.000000
  58 C :   -0.025291    0.000000
  59 H :    0.087983    0.000000
  60 C :   -0.087176   -0.000000
  61 H :    0.100907    0.000000
  62 C :   -0.078510    0.000000
  63 C :   -0.066843    0.000000
  64 C :   -0.060232   -0.000000
  65 C :   -0.116813    0.000000
  66 H :    0.075851    0.000000
  67 H :    0.083177   -0.000000
  68 C :   -0.117355   -0.000000
  69 H :    0.076406   -0.000000
  70 H :    0.082041   -0.000000
  71 C :   -0.078963    0.000000
  72 H :    0.105011   -0.000000
  73 C :   -0.040832   -0.000000
  74 C :   -0.028493   -0.000000
  75 C :   -0.058825   -0.000000
  76 C :   -0.081252    0.000000
  77 H :    0.102168   -0.000000
  78 C :   -0.069883    0.000000
  79 C :   -0.117813    0.000000
  80 H :    0.076459    0.000000
  81 C :   -0.085132   -0.000000
  82 H :    0.101197    0.000000
  83 C :   -0.065259   -0.000000
  84 C :   -0.055988   -0.000000
  85 C :   -0.074442    0.000000
  86 C :   -0.083125    0.000000
  87 H :    0.102109   -0.000000
  88 C :   -0.065088    0.000000
  89 C :   -0.117041    0.000000
  90 C :   -0.085789   -0.000000
  91 H :    0.101073    0.000000
  92 C :   -0.083736    0.000000
  93 H :    0.102104   -0.000000
  94 C :   -0.068404   -0.000000
  95 H :    0.075233    0.000000
  96 H :    0.075450    0.000000
  97 H :    0.082817    0.000000
  98 H :    0.082361    0.000000
  99 C :    0.009353   -0.000000
 100 C :   -0.037225    0.000000

----------------------------------------------------
LOEWDIN REDUCED ORBITAL CHARGES AND SPIN POPULATIONS
----------------------------------------------------
CHARGE
  0 Cls       :     5.804688  s :     5.804688
      pz      :     3.872009  p :    11.117658
      px      :     3.636261
      py      :     3.609388
      dz2     :     0.004616  d :     0.031583
      dxz     :     0.003913
      dyz     :     0.004472
      dx2y2   :     0.002974
      dxy     :     0.015608

  1 Cls       :     5.802313  s :     5.802313
      pz      :     3.854701  p :    11.132730
      px      :     3.537333
      py      :     3.740696
      dz2     :     0.004328  d :     0.032491
      dxz     :     0.007061
      dyz     :     0.003168
      dx2y2   :     0.004082
      dxy     :     0.013851

  2 Cls       :     5.796675  s :     5.796675
      pz      :     3.549529  p :    11.106983
      px      :     3.622944
      py      :     3.934511
      dz2     :     0.007636  d :     0.034518
      dxz     :     0.016736
      dyz     :     0.002406
      dx2y2   :     0.005691
      dxy     :     0.002049

  3 Cls       :     5.795581  s :     5.795581
      pz      :     3.844502  p :    11.099496
      px      :     3.729081
      py      :     3.525912
      dz2     :     0.004224  d :     0.034744
      dxz     :     0.003377
      dyz     :     0.008001
      dx2y2   :     0.005569
      dxy     :     0.013572

  4 Cls       :     5.795645  s :     5.795645
      pz      :     3.623475  p :    11.109498
      px      :     3.839504
      py      :     3.646520
      dz2     :     0.005831  d :     0.034641
      dxz     :     0.005750
      dyz     :     0.012904
      dx2y2   :     0.004403
      dxy     :     0.005752

  5 Cls       :     5.796532  s :     5.796532
      pz      :     3.885617  p :    11.111421
      px      :     3.317393
      py      :     3.908410
      dz2     :     0.004848  d :     0.034303
      dxz     :     0.008378
      dyz     :     0.000624
      dx2y2   :     0.013752
      dxy     :     0.006700

  6 Cls       :     5.795626  s :     5.795626
      pz      :     3.308239  p :    11.106797
      px      :     3.897929
      py      :     3.900628
      dz2     :     0.018068  d :     0.034237
      dxz     :     0.006939
      dyz     :     0.007667
      dx2y2   :     0.000805
      dxy     :     0.000757

  7 Cls       :     5.795955  s :     5.795955
      pz      :     3.376320  p :    11.112183
      px      :     3.924408
      py      :     3.811456
      dz2     :     0.013356  d :     0.034133
      dxz     :     0.005448
      dyz     :     0.012491
      dx2y2   :     0.001298
      dxy     :     0.001540

  8 Cls       :     5.792759  s :     5.792759
      pz      :     3.724882  p :    11.106520
      px      :     3.633719
      py      :     3.747919
      dz2     :     0.004008  d :     0.034448
      dxz     :     0.010751
      dyz     :     0.006022
      dx2y2   :     0.003603
      dxy     :     0.010065

  9 Cls       :     5.795193  s :     5.795193
      pz      :     3.401925  p :    11.105490
      px      :     3.915860
      py      :     3.787705
      dz2     :     0.011809  d :     0.034615
      dxz     :     0.005547
      dyz     :     0.013681
      dx2y2   :     0.001655
      dxy     :     0.001923

 10 Cls       :     5.795293  s :     5.795293
      pz      :     3.487270  p :    11.105222
      px      :     3.710150
      py      :     3.907802
      dz2     :     0.007721  d :     0.034514
      dxz     :     0.016060
      dyz     :     0.004962
      dx2y2   :     0.003182
      dxy     :     0.002590

 11 Cls       :     5.793855  s :     5.793855
      pz      :     3.757881  p :    11.103127
      px      :     3.922844
      py      :     3.422403
      dz2     :     0.003492  d :     0.033904
      dxz     :     0.001342
      dyz     :     0.014265
      dx2y2   :     0.010193
      dxy     :     0.004612

 12 Cls       :     5.794699  s :     5.794699
      pz      :     3.944199  p :    11.118798
      px      :     3.912192
      py      :     3.262407
      dz2     :     0.006048  d :     0.033489
      dxz     :     0.000132
      dyz     :     0.003794
      dx2y2   :     0.015939
      dxy     :     0.007577

 13 Cls       :     5.795065  s :     5.795065
      pz      :     3.925294  p :    11.114781
      px      :     3.366824
      py      :     3.822662
      dz2     :     0.005434  d :     0.033411
      dxz     :     0.004602
      dyz     :     0.000934
      dx2y2   :     0.010979
      dxy     :     0.011462

 14 N s       :     3.210762  s :     3.210762
      pz      :     1.135851  p :     3.811461
      px      :     1.123889
      py      :     1.551721
      dz2     :     0.010204  d :     0.087014
      dxz     :     0.017007
      dyz     :     0.008877
      dx2y2   :     0.019398
      dxy     :     0.031527

 15 N s       :     3.208743  s :     3.208743
      pz      :     1.200970  p :     3.810128
      px      :     1.117693
      py      :     1.491465
      dz2     :     0.009359  d :     0.087612
      dxz     :     0.020812
      dyz     :     0.006645
      dx2y2   :     0.018493
      dxy     :     0.032302

 16 N s       :     3.212178  s :     3.212178
      pz      :     1.146205  p :     3.818117
      px      :     1.412198
      py      :     1.259713
      dz2     :     0.009901  d :     0.085125
      dxz     :     0.011661
      dyz     :     0.014176
      dx2y2   :     0.029367
      dxy     :     0.020020

 17 C s       :     2.895115  s :     2.895115
      pz      :     0.961178  p :     2.961292
      px      :     0.988825
      py      :     1.011289
      dz2     :     0.011725  d :     0.160207
      dxz     :     0.021205
      dyz     :     0.019664
      dx2y2   :     0.047303
      dxy     :     0.060309

 18 C s       :     2.856559  s :     2.856559
      pz      :     0.922101  p :     2.951602
      px      :     0.994204
      py      :     1.035297
      dz2     :     0.010381  d :     0.144223
      dxz     :     0.019116
      dyz     :     0.017116
      dx2y2   :     0.048948
      dxy     :     0.048661

 19 C s       :     2.859037  s :     2.859037
      pz      :     0.898638  p :     2.938236
      px      :     0.991892
      py      :     1.047706
      dz2     :     0.009378  d :     0.144661
      dxz     :     0.016737
      dyz     :     0.017502
      dx2y2   :     0.051302
      dxy     :     0.049741

 20 C s       :     2.866312  s :     2.866312
      pz      :     0.998418  p :     3.071447
      px      :     1.032679
      py      :     1.040351
      dz2     :     0.010191  d :     0.105266
      dxz     :     0.014794
      dyz     :     0.013099
      dx2y2   :     0.033873
      dxy     :     0.033310

 21 C s       :     2.862085  s :     2.862085
      pz      :     0.997154  p :     3.068117
      px      :     1.029563
      py      :     1.041400
      dz2     :     0.009225  d :     0.101229
      dxz     :     0.015062
      dyz     :     0.012806
      dx2y2   :     0.031291
      dxy     :     0.032845

 22 C s       :     2.888612  s :     2.888612
      pz      :     0.934892  p :     3.054364
      px      :     1.073555
      py      :     1.045917
      dz2     :     0.005451  d :     0.082762
      dxz     :     0.006844
      dyz     :     0.011182
      dx2y2   :     0.029172
      dxy     :     0.030113

 23 H s       :     0.861125  s :     0.861125
      pz      :     0.007626  p :     0.044702
      px      :     0.024416
      py      :     0.012660

 24 C s       :     2.861269  s :     2.861269
      pz      :     0.983020  p :     3.066369
      px      :     1.026820
      py      :     1.056528
      dz2     :     0.006903  d :     0.101918
      dxz     :     0.011541
      dyz     :     0.012727
      dx2y2   :     0.033265
      dxy     :     0.037481

 25 C s       :     2.888419  s :     2.888419
      pz      :     0.974158  p :     3.069431
      px      :     1.043927
      py      :     1.051347
      dz2     :     0.005879  d :     0.082825
      dxz     :     0.015835
      dyz     :     0.007241
      dx2y2   :     0.028271
      dxy     :     0.025598

 26 H s       :     0.868410  s :     0.868410
      pz      :     0.011257  p :     0.043227
      px      :     0.006569
      py      :     0.025401

 27 C s       :     2.861185  s :     2.861185
      pz      :     0.994975  p :     3.065430
      px      :     1.032719
      py      :     1.037736
      dz2     :     0.009095  d :     0.100825
      dxz     :     0.016081
      dyz     :     0.013002
      dx2y2   :     0.031885
      dxy     :     0.030762

 28 C s       :     2.870375  s :     2.870375
      pz      :     0.955510  p :     3.026889
      px      :     1.038101
      py      :     1.033278
      dz2     :     0.009616  d :     0.100855
      dxz     :     0.015655
      dyz     :     0.012734
      dx2y2   :     0.031947
      dxy     :     0.030904

 29 C s       :     2.860908  s :     2.860908
      pz      :     0.982957  p :     3.065601
      px      :     1.059797
      py      :     1.022847
      dz2     :     0.006897  d :     0.101409
      dxz     :     0.013132
      dyz     :     0.010726
      dx2y2   :     0.038060
      dxy     :     0.032594

 30 C s       :     2.863250  s :     2.863250
      pz      :     1.042361  p :     3.074309
      px      :     1.023355
      py      :     1.008593
      dz2     :     0.026188  d :     0.104437
      dxz     :     0.035725
      dyz     :     0.016208
      dx2y2   :     0.012572
      dxy     :     0.013743

 31 C s       :     2.890152  s :     2.890152
      pz      :     0.975729  p :     3.088665
      px      :     1.058126
      py      :     1.054809
      dz2     :     0.005575  d :     0.083784
      dxz     :     0.014551
      dyz     :     0.004294
      dx2y2   :     0.032538
      dxy     :     0.026826

 32 H s       :     0.884373  s :     0.884373
      pz      :     0.008368  p :     0.040631
      px      :     0.006116
      py      :     0.026147

 33 C s       :     2.865306  s :     2.865306
      pz      :     1.028804  p :     3.075776
      px      :     1.018444
      py      :     1.028529
      dz2     :     0.021184  d :     0.103662
      dxz     :     0.016088
      dyz     :     0.022420
      dx2y2   :     0.022465
      dxy     :     0.021504

 34 C s       :     2.888471  s :     2.888471
      pz      :     0.997925  p :     3.107792
      px      :     1.056488
      py      :     1.053379
      dz2     :     0.005576  d :     0.084625
      dxz     :     0.006859
      dyz     :     0.011479
      dx2y2   :     0.029274
      dxy     :     0.031438

 35 H s       :     0.885853  s :     0.885853
      pz      :     0.008280  p :     0.039821
      px      :     0.020954
      py      :     0.010586

 36 C s       :     2.892240  s :     2.892240
      pz      :     0.993056  p :     3.106929
      px      :     1.060840
      py      :     1.053033
      dz2     :     0.006229  d :     0.082348
      dxz     :     0.008627
      dyz     :     0.009905
      dx2y2   :     0.028895
      dxy     :     0.028692

 37 H s       :     0.864037  s :     0.864037
      pz      :     0.008772  p :     0.042105
      px      :     0.018643
      py      :     0.014689

 38 C s       :     2.896739  s :     2.896739
      pz      :     0.924645  p :     3.036657
      px      :     1.044141
      py      :     1.067871
      dz2     :     0.007584  d :     0.084410
      dxz     :     0.014172
      dyz     :     0.006039
      dx2y2   :     0.029355
      dxy     :     0.027260

 39 H s       :     0.865878  s :     0.865878
      pz      :     0.007297  p :     0.043058
      px      :     0.006307
      py      :     0.029454

 40 C s       :     2.908503  s :     2.908503
      pz      :     0.972287  p :     3.044157
      px      :     0.984963
      py      :     1.086906
      dz2     :     0.019985  d :     0.114161
      dxz     :     0.019890
      dyz     :     0.025692
      dx2y2   :     0.024330
      dxy     :     0.024263

 41 C s       :     2.863893  s :     2.863893
      pz      :     1.016487  p :     3.064474
      px      :     1.033451
      py      :     1.014536
      dz2     :     0.018734  d :     0.105713
      dxz     :     0.019418
      dyz     :     0.016393
      dx2y2   :     0.026862
      dxy     :     0.024306

 42 C s       :     2.888697  s :     2.888697
      pz      :     1.002375  p :     3.107065
      px      :     1.058533
      py      :     1.046157
      dz2     :     0.005938  d :     0.084732
      dxz     :     0.015733
      dyz     :     0.007136
      dx2y2   :     0.030326
      dxy     :     0.025599

 43 H s       :     0.884738  s :     0.884738
      pz      :     0.010724  p :     0.039846
      px      :     0.005683
      py      :     0.023439

 44 C s       :     2.893657  s :     2.893657
      pz      :     0.992000  p :     2.978559
      px      :     0.977878
      py      :     1.008682
      dz2     :     0.014616  d :     0.160582
      dxz     :     0.027646
      dyz     :     0.015976
      dx2y2   :     0.047983
      dxy     :     0.054360

 45 C s       :     2.864781  s :     2.864781
      pz      :     0.996362  p :     3.063835
      px      :     1.039846
      py      :     1.027626
      dz2     :     0.012004  d :     0.108025
      dxz     :     0.018170
      dyz     :     0.015257
      dx2y2   :     0.033709
      dxy     :     0.028886

 46 C s       :     2.892270  s :     2.892270
      pz      :     0.961142  p :     3.064857
      px      :     1.068303
      py      :     1.035413
      dz2     :     0.007421  d :     0.083368
      dxz     :     0.009913
      dyz     :     0.011886
      dx2y2   :     0.027317
      dxy     :     0.026830

 47 H s       :     0.869507  s :     0.869507
      pz      :     0.008045  p :     0.042116
      px      :     0.023933
      py      :     0.010137

 48 C s       :     2.849768  s :     2.849768
      pz      :     0.945663  p :     2.978860
      px      :     1.016205
      py      :     1.016992
      dz2     :     0.011191  d :     0.145836
      dxz     :     0.021530
      dyz     :     0.017434
      dx2y2   :     0.053700
      dxy     :     0.041981

 49 C s       :     2.891122  s :     2.891122
      pz      :     0.999927  p :     3.114309
      px      :     1.064385
      py      :     1.049997
      dz2     :     0.006911  d :     0.083062
      dxz     :     0.009633
      dyz     :     0.010265
      dx2y2   :     0.028319
      dxy     :     0.027934

 50 H s       :     0.874870  s :     0.874870
      pz      :     0.008360  p :     0.041607
      px      :     0.020723
      py      :     0.012525

 51 C s       :     2.870148  s :     2.870148
      pz      :     0.942416  p :     3.030084
      px      :     1.035350
      py      :     1.052317
      dz2     :     0.006616  d :     0.100601
      dxz     :     0.011870
      dyz     :     0.012863
      dx2y2   :     0.034065
      dxy     :     0.035187

 52 C s       :     2.890203  s :     2.890203
      pz      :     0.974953  p :     3.077995
      px      :     1.048764
      py      :     1.054277
      dz2     :     0.007818  d :     0.086269
      dxz     :     0.008437
      dyz     :     0.013591
      dx2y2   :     0.025882
      dxy     :     0.030540

 53 C s       :     2.850397  s :     2.850397
      pz      :     0.943606  p :     2.978930
      px      :     1.027640
      py      :     1.007684
      dz2     :     0.010602  d :     0.145747
      dxz     :     0.013673
      dyz     :     0.022380
      dx2y2   :     0.044104
      dxy     :     0.054988

 54 C s       :     2.907930  s :     2.907930
      pz      :     0.988737  p :     3.047446
      px      :     1.070798
      py      :     0.987911
      dz2     :     0.017660  d :     0.113492
      dxz     :     0.027562
      dyz     :     0.016173
      dx2y2   :     0.025661
      dxy     :     0.026436

 55 C s       :     2.871965  s :     2.871965
      pz      :     0.973328  p :     3.056057
      px      :     1.054350
      py      :     1.028380
      dz2     :     0.008255  d :     0.099623
      dxz     :     0.013054
      dyz     :     0.013602
      dx2y2   :     0.031086
      dxy     :     0.033626

 56 C s       :     2.891742  s :     2.891742
      pz      :     1.017099  p :     3.108074
      px      :     1.069571
      py      :     1.021404
      dz2     :     0.014851  d :     0.084339
      dxz     :     0.016592
      dyz     :     0.015112
      dx2y2   :     0.019985
      dxy     :     0.017798

 57 H s       :     0.857280  s :     0.857280
      pz      :     0.007064  p :     0.042540
      px      :     0.028364
      py      :     0.007111

 58 C s       :     2.893967  s :     2.893967
      pz      :     0.945749  p :     3.046479
      px      :     1.052960
      py      :     1.047770
      dz2     :     0.005965  d :     0.084845
      dxz     :     0.016339
      dyz     :     0.007021
      dx2y2   :     0.028525
      dxy     :     0.026996

 59 H s       :     0.870579  s :     0.870579
      pz      :     0.010196  p :     0.041438
      px      :     0.006135
      py      :     0.025107

 60 C s       :     2.892375  s :     2.892375
      pz      :     1.031350  p :     3.110320
      px      :     1.045303
      py      :     1.033667
      dz2     :     0.010161  d :     0.084481
      dxz     :     0.020709
      dyz     :     0.009327
      dx2y2   :     0.021803
      dxy     :     0.022481

 61 H s       :     0.857098  s :     0.857098
      pz      :     0.016810  p :     0.041995
      px      :     0.007416
      py      :     0.017768

 62 C s       :     2.902665  s :     2.902665
      pz      :     1.011826  p :     3.058227
      px      :     1.029656
      py      :     1.016744
      dz2     :     0.018099  d :     0.117618
      dxz     :     0.027929
      dyz     :     0.015466
      dx2y2   :     0.027294
      dxy     :     0.028829

 63 C s       :     2.908856  s :     2.908856
      pz      :     1.048483  p :     3.045024
      px      :     0.940414
      py      :     1.056127
      dz2     :     0.018250  d :     0.112963
      dxz     :     0.025397
      dyz     :     0.014213
      dx2y2   :     0.029020
      dxy     :     0.026083

 64 C s       :     2.909391  s :     2.909391
      pz      :     1.044199  p :     3.036479
      px      :     0.996617
      py      :     0.995664
      dz2     :     0.021448  d :     0.114361
      dxz     :     0.016619
      dyz     :     0.027952
      dx2y2   :     0.022911
      dxy     :     0.025431

 65 C s       :     2.880900  s :     2.880900
      pz      :     1.059781  p :     3.152848
      px      :     1.062148
      py      :     1.030920
      dz2     :     0.017005  d :     0.083065
      dxz     :     0.015189
      dyz     :     0.016908
      dx2y2   :     0.020610
      dxy     :     0.013353

 66 H s       :     0.885663  s :     0.885663
      pz      :     0.007382  p :     0.038485
      px      :     0.021703
      py      :     0.009400

 67 H s       :     0.878415  s :     0.878415
      pz      :     0.019240  p :     0.038408
      px      :     0.008829
      py      :     0.010340

 68 C s       :     2.880973  s :     2.880973
      pz      :     1.054760  p :     3.153854
      px      :     1.028838
      py      :     1.070256
      dz2     :     0.018222  d :     0.082528
      dxz     :     0.021911
      dyz     :     0.008195
      dx2y2   :     0.020036
      dxy     :     0.014164

 69 H s       :     0.885075  s :     0.885075
      pz      :     0.006981  p :     0.038519
      px      :     0.006870
      py      :     0.024668

 70 H s       :     0.879591  s :     0.879591
      pz      :     0.019972  p :     0.038368
      px      :     0.009713
      py      :     0.008683

 71 C s       :     2.892729  s :     2.892729
      pz      :     1.039977  p :     3.102495
      px      :     1.026992
      py      :     1.035526
      dz2     :     0.011703  d :     0.083739
      dxz     :     0.010623
      dyz     :     0.021109
      dx2y2   :     0.019665
      dxy     :     0.020640

 72 H s       :     0.852749  s :     0.852749
      pz      :     0.020076  p :     0.042240
      px      :     0.016852
      py      :     0.005312

 73 C s       :     2.865442  s :     2.865442
      pz      :     1.043330  p :     3.069731
      px      :     0.997014
      py      :     1.029386
      dz2     :     0.025624  d :     0.105659
      dxz     :     0.013078
      dyz     :     0.042073
      dx2y2   :     0.012683
      dxy     :     0.012202

 74 C s       :     2.871272  s :     2.871272
      pz      :     0.974960  p :     3.057333
      px      :     1.028845
      py      :     1.053528
      dz2     :     0.009508  d :     0.099888
      dxz     :     0.011705
      dyz     :     0.014890
      dx2y2   :     0.031151
      dxy     :     0.032634

 75 C s       :     2.907402  s :     2.907402
      pz      :     0.945888  p :     3.037049
      px      :     1.072010
      py      :     1.019151
      dz2     :     0.032870  d :     0.114374
      dxz     :     0.034726
      dyz     :     0.016751
      dx2y2   :     0.015130
      dxy     :     0.014898

 76 C s       :     2.891957  s :     2.891957
      pz      :     1.022072  p :     3.105612
      px      :     1.029189
      py      :     1.054352
      dz2     :     0.016160  d :     0.083683
      dxz     :     0.014678
      dyz     :     0.019505
      dx2y2   :     0.016269
      dxy     :     0.017071

 77 H s       :     0.855285  s :     0.855285
      pz      :     0.007772  p :     0.042546
      px      :     0.014229
      py      :     0.020546

 78 C s       :     2.908616  s :     2.908616
      pz      :     0.962324  p :     3.046513
      px      :     1.023921
      py      :     1.060268
      dz2     :     0.032157  d :     0.114753
      dxz     :     0.014507
      dyz     :     0.038678
      dx2y2   :     0.014246
      dxy     :     0.015164

 79 C s       :     2.881154  s :     2.881154
      pz      :     1.083318  p :     3.154076
      px      :     1.044173
      py      :     1.026586
      dz2     :     0.019233  d :     0.082582
      dxz     :     0.012809
      dyz     :     0.011675
      dx2y2   :     0.016878
      dxy     :     0.021989

 80 H s       :     0.885031  s :     0.885031
      pz      :     0.011057  p :     0.038510
      px      :     0.016556
      py      :     0.010897

 81 C s       :     2.892098  s :     2.892098
      pz      :     1.061546  p :     3.109573
      px      :     1.000536
      py      :     1.047490
      dz2     :     0.021906  d :     0.083461
      dxz     :     0.007494
      dyz     :     0.028725
      dx2y2   :     0.013277
      dxy     :     0.012060

 82 H s       :     0.856761  s :     0.856761
      pz      :     0.022658  p :     0.042042
      px      :     0.008281
      py      :     0.011103

 83 C s       :     2.903622  s :     2.903622
      pz      :     1.018999  p :     3.044319
      px      :     1.053878
      py      :     0.971441
      dz2     :     0.020329  d :     0.117318
      dxz     :     0.016387
      dyz     :     0.028627
      dx2y2   :     0.027247
      dxy     :     0.024728

 84 C s       :     2.907244  s :     2.907244
      pz      :     0.987884  p :     3.034045
      px      :     1.028080
      py      :     1.018081
      dz2     :     0.030345  d :     0.114700
      dxz     :     0.036520
      dyz     :     0.018091
      dx2y2   :     0.014978
      dxy     :     0.014766

 85 C s       :     2.904228  s :     2.904228
      pz      :     1.106923  p :     3.053547
      px      :     1.012960
      py      :     0.933664
      dz2     :     0.031325  d :     0.116666
      dxz     :     0.016273
      dyz     :     0.037325
      dx2y2   :     0.017697
      dxy     :     0.014047

 86 C s       :     2.891146  s :     2.891146
      pz      :     1.064435  p :     3.108335
      px      :     1.038200
      py      :     1.005700
      dz2     :     0.020545  d :     0.083643
      dxz     :     0.026143
      dyz     :     0.008786
      dx2y2   :     0.013932
      dxy     :     0.014238

 87 H s       :     0.855851  s :     0.855851
      pz      :     0.026012  p :     0.042039
      px      :     0.007144
      py      :     0.008884

 88 C s       :     2.908296  s :     2.908296
      pz      :     0.970586  p :     3.041745
      px      :     1.013810
      py      :     1.057348
      dz2     :     0.031591  d :     0.115047
      dxz     :     0.014321
      dyz     :     0.039671
      dx2y2   :     0.014474
      dxy     :     0.014990

 89 C s       :     2.880409  s :     2.880409
      pz      :     1.075192  p :     3.153614
      px      :     1.047521
      py      :     1.030901
      dz2     :     0.024275  d :     0.083018
      dxz     :     0.009008
      dyz     :     0.011143
      dx2y2   :     0.016291
      dxy     :     0.022301

 90 C s       :     2.892096  s :     2.892096
      pz      :     1.061767  p :     3.110156
      px      :     1.000740
      py      :     1.047649
      dz2     :     0.021540  d :     0.083537
      dxz     :     0.007315
      dyz     :     0.028693
      dx2y2   :     0.013809
      dxy     :     0.012180

 91 H s       :     0.856905  s :     0.856905
      pz      :     0.023637  p :     0.042022
      px      :     0.007821
      py      :     0.010564

 92 C s       :     2.891359  s :     2.891359
      pz      :     1.056989  p :     3.108847
      px      :     1.045318
      py      :     1.006540
      dz2     :     0.022551  d :     0.083530
      dxz     :     0.025704
      dyz     :     0.011687
      dx2y2   :     0.012205
      dxy     :     0.011382

 93 H s       :     0.855842  s :     0.855842
      pz      :     0.019416  p :     0.042054
      px      :     0.014700
      py      :     0.007937

 94 C s       :     2.904591  s :     2.904591
      pz      :     1.101794  p :     3.047017
      px      :     0.949968
      py      :     0.995256
      dz2     :     0.030835  d :     0.116796
      dxz     :     0.034971
      dyz     :     0.018689
      dx2y2   :     0.016036
      dxy     :     0.016266

 95 H s       :     0.885049  s :     0.885049
      pz      :     0.007735  p :     0.039718
      px      :     0.019514
      py      :     0.012468

 96 H s       :     0.886083  s :     0.886083
      pz      :     0.007294  p :     0.038467
      px      :     0.019340
      py      :     0.011833

 97 H s       :     0.878802  s :     0.878802
      pz      :     0.024995  p :     0.038381
      px      :     0.006799
      py      :     0.006587

 98 H s       :     0.879301  s :     0.879301
      pz      :     0.023787  p :     0.038338
      px      :     0.007973
      py      :     0.006578

 99 C s       :     2.873103  s :     2.873103
      pz      :     0.986561  p :     3.023194
      px      :     1.030667
      py      :     1.005967
      dz2     :     0.010592  d :     0.094350
      dxz     :     0.015598
      dyz     :     0.012437
      dx2y2   :     0.029015
      dxy     :     0.026708

100 C s       :     2.865746  s :     2.865746
      pz      :     1.038983  p :     3.077994
      px      :     1.029515
      py      :     1.009495
      dz2     :     0.010448  d :     0.093485
      dxz     :     0.014268
      dyz     :     0.011673
      dx2y2   :     0.028534
      dxy     :     0.028563


SPIN
  0 Cls       :    -0.000000  s :    -0.000000
      pz      :    -0.000000  p :    -0.000000
      px      :    -0.000000
      py      :     0.000000
      dz2     :    -0.000000  d :    -0.000000
      dxz     :    -0.000000
      dyz     :    -0.000000
      dx2y2   :    -0.000000
      dxy     :    -0.000000

  1 Cls       :     0.000000  s :     0.000000
      pz      :     0.000000  p :     0.000000
      px      :     0.000000
      py      :     0.000000
      dz2     :     0.000000  d :     0.000000
      dxz     :     0.000000
      dyz     :     0.000000
      dx2y2   :     0.000000
      dxy     :     0.000000

  2 Cls       :    -0.000000  s :    -0.000000
      pz      :     0.000000  p :    -0.000000
      px      :    -0.000000
      py      :    -0.000000
      dz2     :    -0.000000  d :    -0.000000
      dxz     :    -0.000000
      dyz     :    -0.000000
      dx2y2   :    -0.000000
      dxy     :    -0.000000

  3 Cls       :    -0.000000  s :    -0.000000
      pz      :    -0.000000  p :    -0.000000
      px      :    -0.000000
      py      :     0.000000
      dz2     :    -0.000000  d :    -0.000000
      dxz     :    -0.000000
      dyz     :    -0.000000
      dx2y2   :    -0.000000
      dxy     :    -0.000000

  4 Cls       :    -0.000000  s :    -0.000000
      pz      :     0.000000  p :     0.000000
      px      :     0.000000
      py      :     0.000000
      dz2     :     0.000000  d :     0.000000
      dxz     :     0.000000
      dyz     :     0.000000
      dx2y2   :     0.000000
      dxy     :     0.000000

  5 Cls       :    -0.000000  s :    -0.000000
      pz      :     0.000000  p :     0.000000
      px      :     0.000000
      py      :     0.000000
      dz2     :     0.000000  d :     0.000000
      dxz     :     0.000000
      dyz     :    -0.000000
      dx2y2   :     0.000000
      dxy     :     0.000000

  6 Cls       :     0.000000  s :     0.000000
      pz      :    -0.000000  p :    -0.000000
      px      :    -0.000000
      py      :    -0.000000
      dz2     :    -0.000000  d :    -0.000000
      dxz     :     0.000000
      dyz     :    -0.000000
      dx2y2   :    -0.000000
      dxy     :    -0.000000

  7 Cls       :    -0.000000  s :    -0.000000
      pz      :     0.000000  p :     0.000000
      px      :     0.000000
      py      :    -0.000000
      dz2     :     0.000000  d :     0.000000
      dxz     :     0.000000
      dyz     :     0.000000
      dx2y2   :     0.000000
      dxy     :     0.000000

  8 Cls       :     0.000000  s :     0.000000
      pz      :     0.000000  p :     0.000000
      px      :    -0.000000
      py      :     0.000000
      dz2     :     0.000000  d :     0.000000
      dxz     :     0.000000
      dyz     :     0.000000
      dx2y2   :     0.000000
      dxy     :     0.000000

  9 Cls       :    -0.000000  s :    -0.000000
      pz      :    -0.000000  p :     0.000000
      px      :     0.000000
      py      :     0.000000
      dz2     :     0.000000  d :     0.000000
      dxz     :     0.000000
      dyz     :     0.000000
      dx2y2   :     0.000000
      dxy     :     0.000000

 10 Cls       :     0.000000  s :     0.000000
      pz      :     0.000000  p :    -0.000000
      px      :    -0.000000
      py      :    -0.000000
      dz2     :     0.000000  d :    -0.000000
      dxz     :    -0.000000
      dyz     :    -0.000000
      dx2y2   :    -0.000000
      dxy     :    -0.000000

 11 Cls       :     0.000000  s :     0.000000
      pz      :    -0.000000  p :    -0.000000
      px      :    -0.000000
      py      :     0.000000
      dz2     :    -0.000000  d :    -0.000000
      dxz     :    -0.000000
      dyz     :    -0.000000
      dx2y2   :    -0.000000
      dxy     :    -0.000000

 12 Cls       :    -0.000000  s :    -0.000000
      pz      :     0.000000  p :     0.000000
      px      :     0.000000
      py      :    -0.000000
      dz2     :     0.000000  d :     0.000000
      dxz     :    -0.000000
      dyz     :    -0.000000
      dx2y2   :     0.000000
      dxy     :     0.000000

 13 Cls       :     0.000000  s :     0.000000
      pz      :     0.000000  p :    -0.000000
      px      :    -0.000000
      py      :    -0.000000
      dz2     :     0.000000  d :    -0.000000
      dxz     :    -0.000000
      dyz     :    -0.000000
      dx2y2   :    -0.000000
      dxy     :    -0.000000

 14 N s       :     0.000000  s :     0.000000
      pz      :     0.000000  p :     0.000000
      px      :     0.000000
      py      :    -0.000000
      dz2     :    -0.000000  d :    -0.000000
      dxz     :    -0.000000
      dyz     :    -0.000000
      dx2y2   :    -0.000000
      dxy     :    -0.000000

 15 N s       :    -0.000000  s :    -0.000000
      pz      :    -0.000000  p :    -0.000000
      px      :    -0.000000
      py      :     0.000000
      dz2     :     0.000000  d :     0.000000
      dxz     :     0.000000
      dyz     :     0.000000
      dx2y2   :     0.000000
      dxy     :     0.000000

 16 N s       :    -0.000000  s :    -0.000000
      pz      :    -0.000000  p :    -0.000000
      px      :    -0.000000
      py      :     0.000000
      dz2     :     0.000000  d :     0.000000
      dxz     :     0.000000
      dyz     :     0.000000
      dx2y2   :     0.000000
      dxy     :     0.000000

 17 C s       :    -0.000000  s :    -0.000000
      pz      :    -0.000000  p :    -0.000000
      px      :    -0.000000
      py      :    -0.000000
      dz2     :     0.000000  d :     0.000000
      dxz     :     0.000000
      dyz     :     0.000000
      dx2y2   :     0.000000
      dxy     :     0.000000

 18 C s       :     0.000000  s :     0.000000
      pz      :     0.000000  p :     0.000000
      px      :     0.000000
      py      :     0.000000
      dz2     :    -0.000000  d :    -0.000000
      dxz     :    -0.000000
      dyz     :    -0.000000
      dx2y2   :     0.000000
      dxy     :    -0.000000

 19 C s       :    -0.000000  s :    -0.000000
      pz      :    -0.000000  p :    -0.000000
      px      :    -0.000000
      py      :    -0.000000
      dz2     :     0.000000  d :     0.000000
      dxz     :     0.000000
      dyz     :     0.000000
      dx2y2   :     0.000000
      dxy     :     0.000000

 20 C s       :     0.000000  s :     0.000000
      pz      :     0.000000  p :     0.000000
      px      :     0.000000
      py      :     0.000000
      dz2     :    -0.000000  d :    -0.000000
      dxz     :    -0.000000
      dyz     :    -0.000000
      dx2y2   :    -0.000000
      dxy     :    -0.000000

 21 C s       :    -0.000000  s :    -0.000000
      pz      :     0.000000  p :     0.000000
      px      :     0.000000
      py      :     0.000000
      dz2     :    -0.000000  d :    -0.000000
      dxz     :    -0.000000
      dyz     :    -0.000000
      dx2y2   :    -0.000000
      dxy     :    -0.000000

 22 C s       :     0.000000  s :     0.000000
      pz      :     0.000000  p :     0.000000
      px      :     0.000000
      py      :     0.000000
      dz2     :    -0.000000  d :    -0.000000
      dxz     :    -0.000000
      dyz     :    -0.000000
      dx2y2   :     0.000000
      dxy     :    -0.000000

 23 H s       :     0.000000  s :     0.000000
      pz      :     0.000000  p :     0.000000
      px      :     0.000000
      py      :     0.000000

 24 C s       :    -0.000000  s :    -0.000000
      pz      :    -0.000000  p :    -0.000000
      px      :    -0.000000
      py      :    -0.000000
      dz2     :     0.000000  d :     0.000000
      dxz     :     0.000000
      dyz     :     0.000000
      dx2y2   :     0.000000
      dxy     :     0.000000

 25 C s       :    -0.000000  s :    -0.000000
      pz      :    -0.000000  p :    -0.000000
      px      :    -0.000000
      py      :    -0.000000
      dz2     :     0.000000  d :     0.000000
      dxz     :     0.000000
      dyz     :    -0.000000
      dx2y2   :     0.000000
      dxy     :    -0.000000

 26 H s       :     0.000000  s :     0.000000
      pz      :    -0.000000  p :    -0.000000
      px      :     0.000000
      py      :    -0.000000

 27 C s       :     0.000000  s :     0.000000
      pz      :     0.000000  p :     0.000000
      px      :    -0.000000
      py      :     0.000000
      dz2     :    -0.000000  d :    -0.000000
      dxz     :    -0.000000
      dyz     :    -0.000000
      dx2y2   :    -0.000000
      dxy     :    -0.000000

 28 C s       :    -0.000000  s :    -0.000000
      pz      :    -0.000000  p :    -0.000000
      px      :    -0.000000
      py      :    -0.000000
      dz2     :     0.000000  d :     0.000000
      dxz     :     0.000000
      dyz     :     0.000000
      dx2y2   :     0.000000
      dxy     :     0.000000

 29 C s       :    -0.000000  s :    -0.000000
      pz      :    -0.000000  p :    -0.000000
      px      :     0.000000
      py      :    -0.000000
      dz2     :    -0.000000  d :     0.000000
      dxz     :     0.000000
      dyz     :     0.000000
      dx2y2   :     0.000000
      dxy     :    -0.000000

 30 C s       :     0.000000  s :     0.000000
      pz      :     0.000000  p :     0.000000
      px      :     0.000000
      py      :     0.000000
      dz2     :    -0.000000  d :    -0.000000
      dxz     :    -0.000000
      dyz     :    -0.000000
      dx2y2   :    -0.000000
      dxy     :    -0.000000

 31 C s       :     0.000000  s :     0.000000
      pz      :     0.000000  p :     0.000000
      px      :     0.000000
      py      :     0.000000
      dz2     :    -0.000000  d :    -0.000000
      dxz     :    -0.000000
      dyz     :    -0.000000
      dx2y2   :    -0.000000
      dxy     :    -0.000000

 32 H s       :    -0.000000  s :    -0.000000
      pz      :     0.000000  p :     0.000000
      px      :     0.000000
      py      :     0.000000

 33 C s       :     0.000000  s :     0.000000
      pz      :     0.000000  p :     0.000000
      px      :     0.000000
      py      :     0.000000
      dz2     :    -0.000000  d :    -0.000000
      dxz     :    -0.000000
      dyz     :    -0.000000
      dx2y2   :    -0.000000
      dxy     :    -0.000000

 34 C s       :    -0.000000  s :    -0.000000
      pz      :    -0.000000  p :    -0.000000
      px      :     0.000000
      py      :     0.000000
      dz2     :     0.000000  d :     0.000000
      dxz     :     0.000000
      dyz     :     0.000000
      dx2y2   :     0.000000
      dxy     :     0.000000

 35 H s       :     0.000000  s :     0.000000
      pz      :    -0.000000  p :     0.000000
      px      :     0.000000
      py      :     0.000000

 36 C s       :    -0.000000  s :    -0.000000
      pz      :     0.000000  p :     0.000000
      px      :     0.000000
      py      :     0.000000
      dz2     :    -0.000000  d :    -0.000000
      dxz     :    -0.000000
      dyz     :    -0.000000
      dx2y2   :    -0.000000
      dxy     :    -0.000000

 37 H s       :    -0.000000  s :    -0.000000
      pz      :     0.000000  p :     0.000000
      px      :     0.000000
      py      :     0.000000

 38 C s       :    -0.000000  s :    -0.000000
      pz      :    -0.000000  p :    -0.000000
      px      :    -0.000000
      py      :    -0.000000
      dz2     :     0.000000  d :     0.000000
      dxz     :     0.000000
      dyz     :     0.000000
      dx2y2   :     0.000000
      dxy     :    -0.000000

 39 H s       :     0.000000  s :     0.000000
      pz      :    -0.000000  p :    -0.000000
      px      :    -0.000000
      py      :    -0.000000

 40 C s       :    -0.000000  s :    -0.000000
      pz      :    -0.000000  p :    -0.000000
      px      :    -0.000000
      py      :    -0.000000
      dz2     :     0.000000  d :     0.000000
      dxz     :     0.000000
      dyz     :     0.000000
      dx2y2   :    -0.000000
      dxy     :     0.000000

 41 C s       :    -0.000000  s :    -0.000000
      pz      :    -0.000000  p :    -0.000000
      px      :    -0.000000
      py      :    -0.000000
      dz2     :     0.000000  d :     0.000000
      dxz     :     0.000000
      dyz     :     0.000000
      dx2y2   :     0.000000
      dxy     :     0.000000

 42 C s       :     0.000000  s :     0.000000
      pz      :     0.000000  p :     0.000000
      px      :     0.000000
      py      :     0.000000
      dz2     :    -0.000000  d :    -0.000000
      dxz     :    -0.000000
      dyz     :    -0.000000
      dx2y2   :    -0.000000
      dxy     :    -0.000000

 43 H s       :    -0.000000  s :    -0.000000
      pz      :     0.000000  p :     0.000000
      px      :    -0.000000
      py      :     0.000000

 44 C s       :     0.000000  s :     0.000000
      pz      :     0.000000  p :     0.000000
      px      :     0.000000
      py      :     0.000000
      dz2     :    -0.000000  d :    -0.000000
      dxz     :    -0.000000
      dyz     :    -0.000000
      dx2y2   :     0.000000
      dxy     :    -0.000000

 45 C s       :    -0.000000  s :    -0.000000
      pz      :    -0.000000  p :    -0.000000
      px      :    -0.000000
      py      :    -0.000000
      dz2     :     0.000000  d :     0.000000
      dxz     :     0.000000
      dyz     :     0.000000
      dx2y2   :     0.000000
      dxy     :     0.000000

 46 C s       :     0.000000  s :     0.000000
      pz      :    -0.000000  p :    -0.000000
      px      :    -0.000000
      py      :    -0.000000
      dz2     :     0.000000  d :     0.000000
      dxz     :     0.000000
      dyz     :     0.000000
      dx2y2   :    -0.000000
      dxy     :     0.000000

 47 H s       :     0.000000  s :     0.000000
      pz      :    -0.000000  p :    -0.000000
      px      :    -0.000000
      py      :    -0.000000

 48 C s       :     0.000000  s :     0.000000
      pz      :     0.000000  p :     0.000000
      px      :     0.000000
      py      :    -0.000000
      dz2     :    -0.000000  d :    -0.000000
      dxz     :    -0.000000
      dyz     :    -0.000000
      dx2y2   :     0.000000
      dxy     :    -0.000000

 49 C s       :    -0.000000  s :    -0.000000
      pz      :    -0.000000  p :    -0.000000
      px      :    -0.000000
      py      :    -0.000000
      dz2     :     0.000000  d :     0.000000
      dxz     :     0.000000
      dyz     :     0.000000
      dx2y2   :     0.000000
      dxy     :     0.000000

 50 H s       :     0.000000  s :     0.000000
      pz      :    -0.000000  p :    -0.000000
      px      :     0.000000
      py      :    -0.000000

 51 C s       :     0.000000  s :     0.000000
      pz      :     0.000000  p :     0.000000
      px      :     0.000000
      py      :     0.000000
      dz2     :    -0.000000  d :    -0.000000
      dxz     :    -0.000000
      dyz     :    -0.000000
      dx2y2   :     0.000000
      dxy     :     0.000000

 52 C s       :     0.000000  s :     0.000000
      pz      :    -0.000000  p :     0.000000
      px      :    -0.000000
      py      :     0.000000
      dz2     :    -0.000000  d :    -0.000000
      dxz     :    -0.000000
      dyz     :    -0.000000
      dx2y2   :    -0.000000
      dxy     :    -0.000000

 53 C s       :     0.000000  s :     0.000000
      pz      :     0.000000  p :     0.000000
      px      :    -0.000000
      py      :     0.000000
      dz2     :    -0.000000  d :    -0.000000
      dxz     :     0.000000
      dyz     :    -0.000000
      dx2y2   :    -0.000000
      dxy     :    -0.000000

 54 C s       :     0.000000  s :     0.000000
      pz      :     0.000000  p :     0.000000
      px      :     0.000000
      py      :     0.000000
      dz2     :    -0.000000  d :    -0.000000
      dxz     :    -0.000000
      dyz     :     0.000000
      dx2y2   :    -0.000000
      dxy     :    -0.000000

 55 C s       :     0.000000  s :     0.000000
      pz      :    -0.000000  p :    -0.000000
      px      :    -0.000000
      py      :    -0.000000
      dz2     :     0.000000  d :     0.000000
      dxz     :     0.000000
      dyz     :     0.000000
      dx2y2   :    -0.000000
      dxy     :     0.000000

 56 C s       :    -0.000000  s :    -0.000000
      pz      :    -0.000000  p :    -0.000000
      px      :     0.000000
      py      :    -0.000000
      dz2     :     0.000000  d :     0.000000
      dxz     :     0.000000
      dyz     :     0.000000
      dx2y2   :     0.000000
      dxy     :     0.000000

 57 H s       :     0.000000  s :     0.000000
      pz      :    -0.000000  p :    -0.000000
      px      :    -0.000000
      py      :    -0.000000

 58 C s       :     0.000000  s :     0.000000
      pz      :     0.000000  p :     0.000000
      px      :     0.000000
      py      :     0.000000
      dz2     :    -0.000000  d :    -0.000000
      dxz     :    -0.000000
      dyz     :    -0.000000
      dx2y2   :    -0.000000
      dxy     :    -0.000000

 59 H s       :    -0.000000  s :    -0.000000
      pz      :     0.000000  p :     0.000000
      px      :     0.000000
      py      :     0.000000

 60 C s       :     0.000000  s :     0.000000
      pz      :    -0.000000  p :    -0.000000
      px      :    -0.000000
      py      :    -0.000000
      dz2     :     0.000000  d :     0.000000
      dxz     :     0.000000
      dyz     :     0.000000
      dx2y2   :     0.000000
      dxy     :     0.000000

 61 H s       :     0.000000  s :     0.000000
      pz      :    -0.000000  p :    -0.000000
      px      :    -0.000000
      py      :    -0.000000

 62 C s       :     0.000000  s :     0.000000
      pz      :     0.000000  p :     0.000000
      px      :     0.000000
      py      :     0.000000
      dz2     :    -0.000000  d :    -0.000000
      dxz     :    -0.000000
      dyz     :    -0.000000
      dx2y2   :    -0.000000
      dxy     :    -0.000000

 63 C s       :     0.000000  s :     0.000000
      pz      :     0.000000  p :     0.000000
      px      :     0.000000
      py      :     0.000000
      dz2     :    -0.000000  d :    -0.000000
      dxz     :    -0.000000
      dyz     :    -0.000000
      dx2y2   :    -0.000000
      dxy     :     0.000000

 64 C s       :    -0.000000  s :    -0.000000
      pz      :    -0.000000  p :    -0.000000
      px      :    -0.000000
      py      :    -0.000000
      dz2     :     0.000000  d :     0.000000
      dxz     :     0.000000
      dyz     :     0.000000
      dx2y2   :    -0.000000
      dxy     :     0.000000

 65 C s       :     0.000000  s :     0.000000
      pz      :     0.000000  p :     0.000000
      px      :     0.000000
      py      :    -0.000000
      dz2     :     0.000000  d :    -0.000000
      dxz     :    -0.000000
      dyz     :    -0.000000
      dx2y2   :    -0.000000
      dxy     :    -0.000000

 66 H s       :     0.000000  s :     0.000000
      pz      :     0.000000  p :     0.000000
      px      :    -0.000000
      py      :     0.000000

 67 H s       :    -0.000000  s :    -0.000000
      pz      :    -0.000000  p :    -0.000000
      px      :    -0.000000
      py      :     0.000000

 68 C s       :    -0.000000  s :    -0.000000
      pz      :     0.000000  p :     0.000000
      px      :     0.000000
      py      :     0.000000
      dz2     :    -0.000000  d :    -0.000000
      dxz     :    -0.000000
      dyz     :    -0.000000
      dx2y2   :    -0.000000
      dxy     :    -0.000000

 69 H s       :    -0.000000  s :    -0.000000
      pz      :    -0.000000  p :    -0.000000
      px      :     0.000000
      py      :    -0.000000

 70 H s       :    -0.000000  s :    -0.000000
      pz      :    -0.000000  p :    -0.000000
      px      :     0.000000
      py      :     0.000000

 71 C s       :    -0.000000  s :    -0.000000
      pz      :     0.000000  p :     0.000000
      px      :     0.000000
      py      :     0.000000
      dz2     :    -0.000000  d :    -0.000000
      dxz     :    -0.000000
      dyz     :    -0.000000
      dx2y2   :    -0.000000
      dxy     :    -0.000000

 72 H s       :    -0.000000  s :    -0.000000
      pz      :     0.000000  p :     0.000000
      px      :     0.000000
      py      :    -0.000000

 73 C s       :    -0.000000  s :    -0.000000
      pz      :     0.000000  p :    -0.000000
      px      :    -0.000000
      py      :    -0.000000
      dz2     :     0.000000  d :     0.000000
      dxz     :     0.000000
      dyz     :     0.000000
      dx2y2   :     0.000000
      dxy     :     0.000000

 74 C s       :    -0.000000  s :    -0.000000
      pz      :    -0.000000  p :    -0.000000
      px      :    -0.000000
      py      :    -0.000000
      dz2     :     0.000000  d :     0.000000
      dxz     :     0.000000
      dyz     :    -0.000000
      dx2y2   :     0.000000
      dxy     :     0.000000

 75 C s       :    -0.000000  s :    -0.000000
      pz      :    -0.000000  p :    -0.000000
      px      :    -0.000000
      py      :    -0.000000
      dz2     :     0.000000  d :     0.000000
      dxz     :     0.000000
      dyz     :     0.000000
      dx2y2   :     0.000000
      dxy     :     0.000000

 76 C s       :     0.000000  s :     0.000000
      pz      :     0.000000  p :     0.000000
      px      :     0.000000
      py      :     0.000000
      dz2     :    -0.000000  d :    -0.000000
      dxz     :    -0.000000
      dyz     :    -0.000000
      dx2y2   :    -0.000000
      dxy     :    -0.000000

 77 H s       :    -0.000000  s :    -0.000000
      pz      :     0.000000  p :     0.000000
      px      :     0.000000
      py      :     0.000000

 78 C s       :     0.000000  s :     0.000000
      pz      :     0.000000  p :     0.000000
      px      :     0.000000
      py      :     0.000000
      dz2     :    -0.000000  d :    -0.000000
      dxz     :    -0.000000
      dyz     :     0.000000
      dx2y2   :     0.000000
      dxy     :    -0.000000

 79 C s       :     0.000000  s :     0.000000
      pz      :     0.000000  p :     0.000000
      px      :     0.000000
      py      :     0.000000
      dz2     :     0.000000  d :     0.000000
      dxz     :     0.000000
      dyz     :     0.000000
      dx2y2   :     0.000000
      dxy     :     0.000000

 80 H s       :     0.000000  s :     0.000000
      pz      :    -0.000000  p :    -0.000000
      px      :    -0.000000
      py      :    -0.000000

 81 C s       :    -0.000000  s :    -0.000000
      pz      :     0.000000  p :    -0.000000
      px      :    -0.000000
      py      :    -0.000000
      dz2     :     0.000000  d :     0.000000
      dxz     :     0.000000
      dyz     :     0.000000
      dx2y2   :     0.000000
      dxy     :     0.000000

 82 H s       :     0.000000  s :     0.000000
      pz      :    -0.000000  p :    -0.000000
      px      :    -0.000000
      py      :     0.000000

 83 C s       :    -0.000000  s :    -0.000000
      pz      :    -0.000000  p :    -0.000000
      px      :    -0.000000
      py      :    -0.000000
      dz2     :     0.000000  d :     0.000000
      dxz     :     0.000000
      dyz     :     0.000000
      dx2y2   :     0.000000
      dxy     :     0.000000

 84 C s       :    -0.000000  s :    -0.000000
      pz      :    -0.000000  p :    -0.000000
      px      :    -0.000000
      py      :    -0.000000
      dz2     :     0.000000  d :     0.000000
      dxz     :     0.000000
      dyz     :     0.000000
      dx2y2   :     0.000000
      dxy     :     0.000000

 85 C s       :     0.000000  s :     0.000000
      pz      :     0.000000  p :     0.000000
      px      :     0.000000
      py      :     0.000000
      dz2     :    -0.000000  d :    -0.000000
      dxz     :    -0.000000
      dyz     :     0.000000
      dx2y2   :    -0.000000
      dxy     :    -0.000000

 86 C s       :    -0.000000  s :    -0.000000
      pz      :     0.000000  p :     0.000000
      px      :     0.000000
      py      :     0.000000
      dz2     :    -0.000000  d :    -0.000000
      dxz     :    -0.000000
      dyz     :    -0.000000
      dx2y2   :    -0.000000
      dxy     :    -0.000000

 87 H s       :    -0.000000  s :    -0.000000
      pz      :    -0.000000  p :     0.000000
      px      :     0.000000
      py      :     0.000000

 88 C s       :     0.000000  s :     0.000000
      pz      :     0.000000  p :     0.000000
      px      :     0.000000
      py      :     0.000000
      dz2     :    -0.000000  d :    -0.000000
      dxz     :    -0.000000
      dyz     :    -0.000000
      dx2y2   :     0.000000
      dxy     :    -0.000000

 89 C s       :     0.000000  s :     0.000000
      pz      :     0.000000  p :     0.000000
      px      :     0.000000
      py      :     0.000000
      dz2     :    -0.000000  d :    -0.000000
      dxz     :    -0.000000
      dyz     :    -0.000000
      dx2y2   :    -0.000000
      dxy     :    -0.000000

 90 C s       :    -0.000000  s :    -0.000000
      pz      :     0.000000  p :    -0.000000
      px      :    -0.000000
      py      :    -0.000000
      dz2     :     0.000000  d :     0.000000
      dxz     :     0.000000
      dyz     :     0.000000
      dx2y2   :     0.000000
      dxy     :     0.000000

 91 H s       :     0.000000  s :     0.000000
      pz      :    -0.000000  p :    -0.000000
      px      :    -0.000000
      py      :     0.000000

 92 C s       :     0.000000  s :     0.000000
      pz      :     0.000000  p :     0.000000
      px      :     0.000000
      py      :     0.000000
      dz2     :    -0.000000  d :    -0.000000
      dxz     :    -0.000000
      dyz     :    -0.000000
      dx2y2   :    -0.000000
      dxy     :    -0.000000

 93 H s       :    -0.000000  s :    -0.000000
      pz      :     0.000000  p :     0.000000
      px      :     0.000000
      py      :     0.000000

 94 C s       :     0.000000  s :     0.000000
      pz      :    -0.000000  p :    -0.000000
      px      :    -0.000000
      py      :    -0.000000
      dz2     :     0.000000  d :     0.000000
      dxz     :     0.000000
      dyz     :     0.000000
      dx2y2   :     0.000000
      dxy     :     0.000000

 95 H s       :     0.000000  s :     0.000000
      pz      :     0.000000  p :    -0.000000
      px      :    -0.000000
      py      :    -0.000000

 96 H s       :     0.000000  s :     0.000000
      pz      :    -0.000000  p :     0.000000
      px      :     0.000000
      py      :     0.000000

 97 H s       :     0.000000  s :     0.000000
      pz      :     0.000000  p :     0.000000
      px      :    -0.000000
      py      :     0.000000

 98 H s       :     0.000000  s :     0.000000
      pz      :     0.000000  p :     0.000000
      px      :     0.000000
      py      :    -0.000000

 99 C s       :    -0.000000  s :    -0.000000
      pz      :    -0.000000  p :    -0.000000
      px      :    -0.000000
      py      :    -0.000000
      dz2     :     0.000000  d :     0.000000
      dxz     :     0.000000
      dyz     :     0.000000
      dx2y2   :     0.000000
      dxy     :     0.000000

100 C s       :     0.000000  s :     0.000000
      pz      :     0.000000  p :     0.000000
      px      :     0.000000
      py      :     0.000000
      dz2     :    -0.000000  d :    -0.000000
      dxz     :    -0.000000
      dyz     :    -0.000000
      dx2y2   :    -0.000000
      dxy     :    -0.000000



                      *****************************
                      * MAYER POPULATION ANALYSIS *
                      *****************************

  NA   - Mulliken gross atomic population
  ZA   - Total nuclear charge
  QA   - Mulliken gross atomic charge
  VA   - Mayer's total valence
  BVA  - Mayer's bonded valence
  FA   - Mayer's free valence

  ATOM       NA         ZA         QA         VA         BVA        FA
  0 Cl    16.9906    17.0000     0.0094     1.1456     1.1456    -0.0000
  1 Cl    17.0031    17.0000    -0.0031     1.1638     1.1638     0.0000
  2 Cl    16.9859    17.0000     0.0141     1.1452     1.1452     0.0000
  3 Cl    16.9705    17.0000     0.0295     1.1496     1.1496     0.0000
  4 Cl    16.9895    17.0000     0.0105     1.1415     1.1415    -0.0000
  5 Cl    16.9890    17.0000     0.0110     1.1350     1.1350    -0.0000
  6 Cl    16.9802    17.0000     0.0198     1.1362     1.1362    -0.0000
  7 Cl    16.9863    17.0000     0.0137     1.1300     1.1300    -0.0000
  8 Cl    16.9861    17.0000     0.0139     1.1310     1.1310    -0.0000
  9 Cl    16.9780    17.0000     0.0220     1.1508     1.1508    -0.0000
 10 Cl    16.9798    17.0000     0.0202     1.1501     1.1501     0.0000
 11 Cl    16.9809    17.0000     0.0191     1.1320     1.1320    -0.0000
 12 Cl    16.9987    17.0000     0.0013     1.0999     1.0999     0.0000
 13 Cl    16.9940    17.0000     0.0060     1.1062     1.1062    -0.0000
 14 N      7.3603     7.0000    -0.3603     3.0330     3.0330     0.0000
 15 N      7.3554     7.0000    -0.3554     3.0269     3.0269    -0.0000
 16 N      7.4397     7.0000    -0.4397     2.9935     2.9935     0.0000
 17 C      5.9785     6.0000     0.0215     3.9563     3.9563     0.0000
 18 C      5.8421     6.0000     0.1579     3.9730     3.9730    -0.0000
 19 C      5.8444     6.0000     0.1556     3.9701     3.9701     0.0000
 20 C      5.8818     6.0000     0.1182     3.9332     3.9332    -0.0000
 21 C      5.9387     6.0000     0.0613     3.9199     3.9199     0.0000
 22 C      6.1221     6.0000    -0.1221     3.8529     3.8529    -0.0000
 23 H      0.8630     1.0000     0.1370     0.9793     0.9793    -0.0000
 24 C      5.9305     6.0000     0.0695     3.9225     3.9225    -0.0000
 25 C      6.1347     6.0000    -0.1347     3.8791     3.8791    -0.0000
 26 H      0.8733     1.0000     0.1267     0.9703     0.9703     0.0000
 27 C      5.9522     6.0000     0.0478     3.9756     3.9756    -0.0000
 28 C      5.9233     6.0000     0.0767     3.9527     3.9527    -0.0000
 29 C      5.9491     6.0000     0.0509     3.9561     3.9561    -0.0000
 30 C      5.8760     6.0000     0.1240     3.9279     3.9279    -0.0000
 31 C      6.1119     6.0000    -0.1119     3.9230     3.9230    -0.0000
 32 H      0.9088     1.0000     0.0912     0.9624     0.9624    -0.0000
 33 C      5.8998     6.0000     0.1002     3.9352     3.9352    -0.0000
 34 C      6.1512     6.0000    -0.1512     3.9564     3.9564    -0.0000
 35 H      0.9141     1.0000     0.0859     0.9631     0.9631     0.0000
 36 C      6.0983     6.0000    -0.0983     3.8809     3.8809     0.0000
 37 H      0.8700     1.0000     0.1300     0.9620     0.9620     0.0000
 38 C      6.0823     6.0000    -0.0823     3.9173     3.9173    -0.0000
 39 H      0.8727     1.0000     0.1273     0.9705     0.9705     0.0000
 40 C      6.1337     6.0000    -0.1337     3.9611     3.9611    -0.0000
 41 C      5.8483     6.0000     0.1517     3.9370     3.9370    -0.0000
 42 C      6.1522     6.0000    -0.1522     3.9407     3.9407    -0.0000
 43 H      0.9114     1.0000     0.0886     0.9628     0.9628    -0.0000
 44 C      6.0042     6.0000    -0.0042     3.9463     3.9463     0.0000
 45 C      5.8727     6.0000     0.1273     3.9523     3.9523    -0.0000
 46 C      6.0853     6.0000    -0.0853     3.9140     3.9140    -0.0000
 47 H      0.8813     1.0000     0.1187     0.9673     0.9673     0.0000
 48 C      5.8496     6.0000     0.1504     3.9966     3.9966    -0.0000
 49 C      6.1026     6.0000    -0.1026     3.8963     3.8963     0.0000
 50 H      0.8947     1.0000     0.1053     0.9628     0.9628     0.0000
 51 C      5.9251     6.0000     0.0749     3.9554     3.9554    -0.0000
 52 C      6.1480     6.0000    -0.1480     3.9512     3.9512    -0.0000
 53 C      5.8541     6.0000     0.1459     3.9879     3.9879    -0.0000
 54 C      6.1437     6.0000    -0.1437     3.9542     3.9542    -0.0000
 55 C      5.9213     6.0000     0.0787     3.8918     3.8918     0.0000
 56 C      6.0472     6.0000    -0.0472     3.8930     3.8930    -0.0000
 57 H      0.8570     1.0000     0.1430     0.9633     0.9633     0.0000
 58 C      6.0758     6.0000    -0.0758     3.9358     3.9358    -0.0000
 59 H      0.8839     1.0000     0.1161     0.9625     0.9625     0.0000
 60 C      6.0522     6.0000    -0.0522     3.8955     3.8955    -0.0000
 61 H      0.8570     1.0000     0.1430     0.9594     0.9594     0.0000
 62 C      6.0977     6.0000    -0.0977     3.9793     3.9793    -0.0000
 63 C      6.1351     6.0000    -0.1351     3.9517     3.9517    -0.0000
 64 C      6.1269     6.0000    -0.1269     3.9656     3.9656     0.0000
 65 C      6.2350     6.0000    -0.2350     3.8832     3.8832     0.0000
 66 H      0.8961     1.0000     0.1039     0.9560     0.9560     0.0000
 67 H      0.8748     1.0000     0.1252     0.9475     0.9475     0.0000
 68 C      6.2372     6.0000    -0.2372     3.8848     3.8848     0.0000
 69 H      0.8952     1.0000     0.1048     0.9568     0.9568     0.0000
 70 H      0.8776     1.0000     0.1224     0.9479     0.9479     0.0000
 71 C      6.0451     6.0000    -0.0451     3.8867     3.8867    -0.0000
 72 H      0.8483     1.0000     0.1517     0.9576     0.9576    -0.0000
 73 C      5.9165     6.0000     0.0835     3.9464     3.9464    -0.0000
 74 C      5.9237     6.0000     0.0763     3.8870     3.8870    -0.0000
 75 C      6.1236     6.0000    -0.1236     3.9720     3.9720     0.0000
 76 C      6.0437     6.0000    -0.0437     3.8909     3.8909    -0.0000
 77 H      0.8534     1.0000     0.1466     0.9625     0.9625    -0.0000
 78 C      6.1292     6.0000    -0.1292     3.9616     3.9616     0.0000
 79 C      6.2373     6.0000    -0.2373     3.8847     3.8847    -0.0000
 80 H      0.8953     1.0000     0.1047     0.9563     0.9563     0.0000
 81 C      6.0495     6.0000    -0.0495     3.8891     3.8891    -0.0000
 82 H      0.8567     1.0000     0.1433     0.9589     0.9589     0.0000
 83 C      6.0851     6.0000    -0.0851     3.9852     3.9852    -0.0000
 84 C      6.1118     6.0000    -0.1118     3.9711     3.9711    -0.0000
 85 C      6.0973     6.0000    -0.0973     3.9768     3.9768    -0.0000
 86 C      6.0465     6.0000    -0.0465     3.8923     3.8923     0.0000
 87 H      0.8553     1.0000     0.1447     0.9585     0.9585    -0.0000
 88 C      6.1185     6.0000    -0.1185     3.9643     3.9643    -0.0000
 89 C      6.2349     6.0000    -0.2349     3.8847     3.8847     0.0000
 90 C      6.0510     6.0000    -0.0510     3.8873     3.8873     0.0000
 91 H      0.8568     1.0000     0.1432     0.9588     0.9588     0.0000
 92 C      6.0482     6.0000    -0.0482     3.8926     3.8926    -0.0000
 93 H      0.8551     1.0000     0.1449     0.9586     0.9586    -0.0000
 94 C      6.0953     6.0000    -0.0953     3.9800     3.9800     0.0000
 95 H      0.9125     1.0000     0.0875     0.9631     0.9631    -0.0000
 96 H      0.8972     1.0000     0.1028     0.9563     0.9563     0.0000
 97 H      0.8751     1.0000     0.1249     0.9472     0.9472     0.0000
 98 H      0.8769     1.0000     0.1231     0.9474     0.9474     0.0000
 99 C      6.0850     6.0000    -0.0850     3.9113     3.9113     0.0000
100 C      6.1114     6.0000    -0.1114     3.9031     3.9031    -0.0000

  Mayer bond orders larger than 0.100000
B(  0-Cl, 17-C ) :   1.0599 B(  1-Cl, 44-C ) :   1.0394 B(  2-Cl, 40-C ) :   1.0479 
B(  3-Cl, 64-C ) :   1.0660 B(  4-Cl, 54-C ) :   1.0430 B(  5-Cl, 63-C ) :   1.0479 
B(  6-Cl, 75-C ) :   1.0561 B(  7-Cl, 78-C ) :   1.0527 B(  8-Cl, 62-C ) :   1.0388 
B(  9-Cl, 88-C ) :   1.0614 B( 10-Cl, 84-C ) :   1.0610 B( 11-Cl, 83-C ) :   1.0443 
B( 12-Cl, 85-C ) :   1.0311 B( 13-Cl, 94-C ) :   1.0350 B( 14-N , 17-C ) :   1.5120 
B( 14-N , 19-C ) :   1.3529 B( 15-N , 18-C ) :   1.3607 B( 15-N , 44-C ) :   1.4928 
B( 16-N , 48-C ) :   1.4160 B( 16-N , 53-C ) :   1.4102 B( 17-C , 20-C ) :   1.1953 
B( 18-C , 24-C ) :   1.0325 B( 18-C , 49-C ) :   1.3400 B( 19-C , 21-C ) :   1.0273 
B( 19-C , 36-C ) :   1.3436 B( 20-C , 38-C ) :   1.3007 B( 20-C , 99-C ) :   1.2166 
B( 21-C , 25-C ) :   1.3765 B( 21-C , 46-C ) :   1.3864 B( 22-C , 23-H ) :   0.9140 
B( 22-C , 24-C ) :   1.3616 B( 22-C , 29-C ) :   1.3779 B( 24-C , 31-C ) :   1.3957 
B( 25-C , 26-H ) :   0.9193 B( 25-C , 27-C ) :   1.3949 B( 27-C , 28-C ) :   1.4067 
B( 27-C , 53-C ) :   1.0263 B( 28-C , 42-C ) :   1.4150 B( 28-C , 68-C ) :   0.9928 
B( 29-C , 48-C ) :   1.0319 B( 29-C , 51-C ) :   1.4069 B( 30-C , 75-C ) :   1.3281 
B( 30-C , 84-C ) :   1.3170 B( 30-C , 99-C ) :   1.0856 B( 31-C , 32-H ) :   0.9391 
B( 31-C , 34-C ) :   1.4309 B( 33-C , 40-C ) :   1.3229 B( 33-C , 64-C ) :   1.3007 
B( 33-C , 99-C ) :   1.1092 B( 34-C , 35-H ) :   0.9411 B( 34-C , 51-C ) :   1.4196 
B( 36-C , 37-H ) :   0.9305 B( 36-C , 38-C ) :   1.4757 B( 38-C , 39-H ) :   0.9246 
B( 40-C , 76-C ) :   1.4157 B( 41-C , 54-C ) :   1.2977 B( 41-C , 63-C ) :   1.2905 
B( 41-C ,100-C ) :   1.1480 B( 42-C , 43-H ) :   0.9416 B( 42-C , 46-C ) :   1.4261 
B( 44-C , 45-C ) :   1.2048 B( 45-C , 58-C ) :   1.3208 B( 45-C ,100-C ) :   1.2000 
B( 46-C , 47-H ) :   0.9325 B( 48-C , 74-C ) :   1.3495 B( 49-C , 50-H ) :   0.9346 
B( 49-C , 58-C ) :   1.4891 B( 51-C , 79-C ) :   0.9916 B( 52-C , 55-C ) :   1.4190 
B( 52-C , 74-C ) :   1.4168 B( 52-C , 95-H ) :   0.9385 B( 53-C , 55-C ) :   1.3510 
B( 54-C , 56-C ) :   1.4267 B( 55-C , 65-C ) :   0.9861 B( 56-C , 57-H ) :   0.9306 
B( 56-C , 62-C ) :   1.3901 B( 58-C , 59-H ) :   0.9324 B( 60-C , 61-H ) :   0.9336 
B( 60-C , 62-C ) :   1.3843 B( 60-C , 63-C ) :   1.4348 B( 64-C , 71-C ) :   1.4274 
B( 65-C , 66-H ) :   0.9506 B( 65-C , 67-H ) :   0.9408 B( 65-C , 68-C ) :   0.9855 
B( 68-C , 69-H ) :   0.9507 B( 68-C , 70-H ) :   0.9414 B( 71-C , 72-H ) :   0.9319 
B( 71-C , 83-C ) :   1.3826 B( 73-C , 78-C ) :   1.3475 B( 73-C , 88-C ) :   1.3296 
B( 73-C ,100-C ) :   1.0645 B( 74-C , 89-C ) :   0.9874 B( 75-C , 92-C ) :   1.4182 
B( 76-C , 77-H ) :   0.9299 B( 76-C , 83-C ) :   1.3989 B( 78-C , 81-C ) :   1.4057 
B( 79-C , 80-H ) :   0.9501 B( 79-C , 89-C ) :   0.9861 B( 79-C , 98-H ) :   0.9411 
B( 81-C , 82-H ) :   0.9338 B( 81-C , 85-C ) :   1.4088 B( 84-C , 86-C ) :   1.4266 
B( 85-C , 90-C ) :   1.3966 B( 86-C , 87-H ) :   0.9332 B( 86-C , 94-C ) :   1.3937 
B( 88-C , 90-C ) :   1.4192 B( 89-C , 96-H ) :   0.9509 B( 89-C , 97-H ) :   0.9418 
B( 90-C , 91-H ) :   0.9341 B( 92-C , 93-H ) :   0.9332 B( 92-C , 94-C ) :   1.4012 
B( 99-C ,100-C ) :   0.1464 

-------
TIMINGS
-------

Total SCF time: 0 days 0 hours 0 min 58 sec 

Total time                  ....      58.988 sec
Sum of individual times     ....      55.914 sec  ( 94.8%)

Fock matrix formation       ....      52.962 sec  ( 89.8%)
  Startup                   ....       0.084 sec  (  0.2% of F)
  Split-RI-J                ....       2.732 sec  (  5.2% of F)
  Chain of spheres X        ....      50.746 sec  ( 95.8% of F)
  XC integration            ....       1.335 sec  (  2.5% of F)
    Basis function eval.    ....       0.210 sec  ( 15.7% of XC)
    Density eval.           ....       0.371 sec  ( 27.8% of XC)
    XC-Functional eval.     ....       0.061 sec  (  4.5% of XC)
    XC-Potential eval.      ....       0.271 sec  ( 20.3% of XC)
Diagonalization             ....       0.000 sec  (  0.0%)
Density matrix formation    ....       0.282 sec  (  0.5%)
Total Energy calculation    ....       0.114 sec  (  0.2%)
Population analysis         ....       0.305 sec  (  0.5%)
Orbital Transformation      ....       0.469 sec  (  0.8%)
Orbital Orthonormalization  ....       0.000 sec  (  0.0%)
DIIS solution               ....       0.492 sec  (  0.8%)
SOSCF solution              ....       1.180 sec  (  2.0%)
Finished LeanSCF after 216.1 sec

Maximum memory used throughout the entire LEANSCF-calculation: 249.1 MB


           ************************************************************
           *        Program running with 24 parallel MPI-processes    *
           *              working on a common directory               *
           ************************************************************

------------------------------------------------------------------------------
                         ORCA PROPERTY INTEGRAL CALCULATIONS
------------------------------------------------------------------------------

GBWName                                   ... THDBA-PyBTM.gbw
Number of atoms                           ...    101
Number of basis functions                 ...   1227
Max core memory                           ...  20000 MB

Dipole integrals                          ... YES
Quadrupole integrals                      ...  NO
Linear momentum integrals                 ... YES
Angular momentum integrals                ... YES
Higher moments length integrals           ...  NO
Higher moments velocity integrals         ...  NO
Kinetic energy integrals                  ...  NO
GIAO right hand sides                     ...  NO
GIAO dipole derivative integrals          ...  NO
SOC integrals                             ...  NO
EPR diamagnetic integrals (GIAO)          ...  NO
EPR gauge integrals                       ...  NO
Field gradient integrals                  ...  NO (   0 nuclei)
Spin-dipole/Fermi contact integrals       ...  NO (   0 nuclei)
Contact density integrals                 ...  NO (   0 nuclei)
Nucleus-orbit integrals                   ...  NO (   0 nuclei)
Geometric perturbations                   ...  NO ( 101 nuclei)

Choice of electric origin   ... Center of mass
Position of electric origin ... ( -0.1961,  0.0730,  0.0062) 
Choice of magnetic origin   ... GIAO
Position of magnetic origin ... (  0.0000,  0.0000,  0.0000) 

Calculating integrals                     ... Electric Dipole (Length)     done (  0.0 sec)
Calculating integrals                     ... Linear Momentum              done (  0.1 sec)
Calculating integrals                     ... Angular Momentum  (ElOri)    done (  0.1 sec)

Property integrals calculated in   0.2 sec

Maximum memory used throughout the entire PROPINT-calculation: 153.9 MB


           ************************************************************
           *        Program running with 24 parallel MPI-processes    *
           *              working on a common directory               *
           ************************************************************
------------------------------------------------------------------------------
                        ORCA TD-DFT/TDA CALCULATION
------------------------------------------------------------------------------

Input orbitals are from        ... THDBA-PyBTM.gbw
CI-vector output               ... THDBA-PyBTM.cis
Solver                         ... FN-2001
Tamm-Dancoff approximation     ... operative
CIS-Integral strategy          ... AO-integrals
Integral handling              ... AO integral Direct
Max. core memory used          ... 20000 MB
Reference state                ... UHF
Follow IRoot                   ... off
Number of operators            ... 2
Orbital ranges used for CIS calculation:
 Operator 0:  Orbitals 130...313  to 314...1226
 Operator 1:  Orbitals 130...313  to 314...1226
XAS localization array:
 Operator 0:  Orbitals  -1... -1
 Operator 1:  Orbitals  -1... -1

-------------------
XC-INTEGRATION GRID
-------------------

General Integration Accuracy     IntAcc      ... 3.467
Radial Grid Type                 RadialGrid  ... OptM3 with GC (2021)
Angular Grid (max. ang.)         AngularGrid ... 1 (Lebedev-50)
Angular grid pruning method      GridPruning ... 4 (adaptive)
Weight generation scheme         WeightScheme... mBecke (2022)
Basis function cutoff            BFCut       ... 1.0000e-11
Integration weight cutoff        WCut        ... 1.0000e-14
Partially contracted basis set               ... off
Rotationally invariant grid construction     ... off
Angular grids for H and He will be reduced by one unit

Total number of grid points                  ...    90601
Total number of batches                      ...     1456
Average number of points per batch           ...       62
Average number of grid points per atom       ...      897

---------------------
COSX-INTEGRATION GRID
---------------------

General Integration Accuracy     IntAcc      ... 3.067
Radial Grid Type                 RadialGrid  ... OptM3 with GC (2021)
Angular Grid (max. ang.)         AngularGrid ... 1 (Lebedev-50)
Angular grid pruning method      GridPruning ... 4 (adaptive)
Weight generation scheme         WeightScheme... mBecke (2022)
Basis function cutoff            BFCut       ... 1.0000e-11
Integration weight cutoff        WCut        ... 1.0000e-14
Partially contracted basis set               ... on
Rotationally invariant grid construction     ... off
Angular grids for H and He will be reduced by one unit

Total number of grid points                  ...    47631
Total number of batches                      ...      425
Average number of points per batch           ...      112
Average number of grid points per atom       ...      472

---------------
TD-DFT XC SETUP
---------------

DFT calculation                         ... on
Name of the grid file                   ... THDBA-PyBTM.grid_cis.tmp
RI-approximation                        ... on
Aux-basis dimension                     ... 0
Exchange functional (TD-DFT)            ... WB88
Correlation functional (TD-DFT)         ... LYP
 LDA part of GGA corr.  LDAOpt (TD-DFT) ... VWN-5
Hybrid DFT                              ... on
   Exchange mixing (TD-DFT)             ...  0.190
   GGA exch. scaling (TD-DFT)           ...  0.350
   GGA corr. scaling (TD-DFT)           ...  0.810
Range-Separated Exchange                ... on
   Range Range separation parameter mu  .... 0.330
   Max. amount of RS exchange (TD-DFT)  ...  0.460

Building densities             ... done
Calculating rho(r) on the grid ... done
Building xc-kernel on the grid ... done
                    *** TD-DFT CALCULATION INITIALIZED ***

------------------------
DAVIDSON-DIAGONALIZATION
------------------------

Dimension of the eigenvalue problem            ... 335984
Number of roots to be determined               ...     50
Maximum size of the expansion space            ...    500
Maximum number of iterations                   ...    100
Convergence tolerance for the residual         ...    2.500e-07
Convergence tolerance for the energies         ...    2.500e-07
Orthogonality tolerance                        ...    1.000e-14
Level Shift                                    ...    0.000e+00
Constructing the preconditioner                ... o.k.
Building the initial guess                     ... o.k.
Number of trial vectors determined             ...    500


                       ****Iteration    0****
   Time for iteration     :  TOTAL=89.1 TRAFO=7.6 RIJ=12.5 COSX=53.3 XC=14.8
   Size of expansion space: 150
   Lowest Energy          :    -0.046050067180
   Maximum Energy change  :     0.136637447575 (vector 49)
   Maximum residual norm  :     0.014326029366

                       ****Iteration    1****
   Time for iteration     :  TOTAL=35.1 TRAFO=2.5 RIJ=4.6 COSX=22.1 XC=5.6
   Size of expansion space: 200
   Lowest Energy          :    -0.049286413224
   Maximum Energy change  :     0.020243806832 (vector 1)
   Maximum residual norm  :     0.001270141709

                       ****Iteration    2****
   Time for iteration     :  TOTAL=35.2 TRAFO=2.5 RIJ=4.6 COSX=22.1 XC=5.7
   Size of expansion space: 250
   Lowest Energy          :    -0.049374252535
   Maximum Energy change  :     0.001253672216 (vector 48)
   Maximum residual norm  :     0.001111709442

                       ****Iteration    3****
   Time for iteration     :  TOTAL=35.7 TRAFO=2.8 RIJ=4.6 COSX=22.2 XC=5.7
   Size of expansion space: 300
   Lowest Energy          :    -0.049376622425
   Maximum Energy change  :     0.002850228325 (vector 48)
   Maximum residual norm  :     0.000286346166

                       ****Iteration    4****
   Time for iteration     :  TOTAL=35.6 TRAFO=2.6 RIJ=4.7 COSX=22.3 XC=5.8
   Size of expansion space: 350
   Lowest Energy          :    -0.049376694461
   Maximum Energy change  :     0.001574403980 (vector 36)
   Maximum residual norm  :     0.000100261133

                       ****Iteration    5****
   Time for iteration     :  TOTAL=35.7 TRAFO=2.6 RIJ=4.7 COSX=22.3 XC=5.8
   Size of expansion space: 400
   Lowest Energy          :    -0.049376695572
   Maximum Energy change  :     0.000288073847 (vector 34)
   Maximum residual norm  :     0.000010967532

                       ****Iteration    6****
   Time for iteration     :  TOTAL=35.6 TRAFO=2.5 RIJ=4.6 COSX=22.3 XC=5.8
   Size of expansion space: 450
   Lowest Energy          :    -0.049376695590
   Maximum Energy change  :     0.000026887583 (vector 34)
   Maximum residual norm  :     0.000000756939

                       ****Iteration    7****
   Time for iteration     :  TOTAL=36.7 TRAFO=3.5 RIJ=4.7 COSX=22.4 XC=5.8
   Size of expansion space: 500
   Lowest Energy          :    -0.049376695590
   Maximum Energy change  :     0.000002070914 (vector 48)
   Maximum residual norm  :     0.000000091458

      *** CONVERGENCE OF RESIDUAL NORM REACHED ***

Storing the converged CI vectors               ... THDBA-PyBTM.cis1

                 *** DAVIDSON DONE ***

Total time for solving the CIS problem:   436.995sec

-------------------------
TD-DFT/TDA EXCITED STATES
-------------------------

the weight of the individual excitations are printed if larger than 1.0e-02

UHF/UKS reference: multiplicity estimated based on rounded <S**2> value, RELEVANCE IS LIMITED!

STATE  1:  E=  -0.049377 au     -1.344 eV   -10836.9 cm**-1 <S**2> =   2.000000 Mult 3
   313a -> 314a  :     0.485764 (c= -0.69696755)
   313b -> 314b  :     0.485764 (c=  0.69696755)

STATE  2:  E=   0.049089 au      1.336 eV    10773.7 cm**-1 <S**2> =   0.000000 Mult 1
   313a -> 314a  :     0.434764 (c=  0.65936656)
   313b -> 314b  :     0.434764 (c=  0.65936656)

STATE  3:  E=   0.067976 au      1.850 eV    14919.0 cm**-1 <S**2> =   2.000000 Mult 3
   310a -> 314a  :     0.208323 (c= -0.45642388)
   312a -> 314a  :     0.233166 (c= -0.48287291)
   310b -> 314b  :     0.208323 (c=  0.45642388)
   312b -> 314b  :     0.233166 (c=  0.48287291)

STATE  4:  E=   0.073088 au      1.989 eV    16041.0 cm**-1 <S**2> =   2.000000 Mult 3
   308a -> 314a  :     0.012574 (c=  0.11213368)
   311a -> 314a  :     0.374289 (c=  0.61179127)
   312a -> 314a  :     0.014806 (c= -0.12168096)
   313a -> 315a  :     0.022755 (c= -0.15084738)
   308b -> 314b  :     0.012574 (c= -0.11213368)
   311b -> 314b  :     0.374289 (c= -0.61179127)
   312b -> 314b  :     0.014806 (c=  0.12168096)
   313b -> 315b  :     0.022755 (c=  0.15084738)

STATE  5:  E=   0.079294 au      2.158 eV    17402.9 cm**-1 <S**2> =   0.000000 Mult 1
   310a -> 314a  :     0.041719 (c= -0.20425341)
   312a -> 314a  :     0.422314 (c= -0.64985683)
   313a -> 316a  :     0.011227 (c= -0.10595651)
   310b -> 314b  :     0.041719 (c= -0.20425341)
   312b -> 314b  :     0.422314 (c= -0.64985683)
   313b -> 316b  :     0.011227 (c= -0.10595651)

STATE  6:  E=   0.083377 au      2.269 eV    18299.0 cm**-1 <S**2> =   2.000000 Mult 3
   308a -> 314a  :     0.015007 (c=  0.12250319)
   310a -> 314a  :     0.186767 (c= -0.43216536)
   311a -> 314a  :     0.013122 (c=  0.11455269)
   312a -> 314a  :     0.227152 (c=  0.47660421)
   308b -> 314b  :     0.015007 (c= -0.12250319)
   310b -> 314b  :     0.186767 (c=  0.43216536)
   311b -> 314b  :     0.013122 (c= -0.11455269)
   312b -> 314b  :     0.227152 (c= -0.47660421)

STATE  7:  E=   0.086674 au      2.359 eV    19022.8 cm**-1 <S**2> =   0.000000 Mult 1
   305a -> 314a  :     0.014726 (c=  0.12134918)
   306a -> 314a  :     0.014440 (c=  0.12016715)
   308a -> 314a  :     0.024750 (c=  0.15732063)
   311a -> 314a  :     0.386337 (c=  0.62155985)
   313a -> 315a  :     0.013292 (c=  0.11528882)
   305b -> 314b  :     0.014726 (c=  0.12134918)
   306b -> 314b  :     0.014440 (c=  0.12016715)
   308b -> 314b  :     0.024750 (c=  0.15732063)
   311b -> 314b  :     0.386337 (c=  0.62155985)
   313b -> 315b  :     0.013292 (c=  0.11528882)

STATE  8:  E=   0.089247 au      2.429 eV    19587.4 cm**-1 <S**2> =   2.000000 Mult 3
   300a -> 314a  :     0.018985 (c= -0.13778760)
   306a -> 314a  :     0.043922 (c= -0.20957588)
   307a -> 314a  :     0.176893 (c=  0.42058607)
   308a -> 314a  :     0.157270 (c=  0.39657278)
   313a -> 317a  :     0.041903 (c= -0.20470225)
   300b -> 314b  :     0.018985 (c=  0.13778760)
   306b -> 314b  :     0.043922 (c=  0.20957588)
   307b -> 314b  :     0.176893 (c= -0.42058607)
   308b -> 314b  :     0.157270 (c= -0.39657278)
   313b -> 317b  :     0.041903 (c=  0.20470225)

STATE  9:  E=   0.090274 au      2.456 eV    19812.8 cm**-1 <S**2> =   0.000000 Mult 1
   300a -> 314a  :     0.011458 (c= -0.10704065)
   310a -> 314a  :     0.358331 (c=  0.59860775)
   312a -> 314a  :     0.063694 (c= -0.25237636)
   313a -> 316a  :     0.019589 (c=  0.13996012)
   300b -> 314b  :     0.011458 (c= -0.10704065)
   310b -> 314b  :     0.358331 (c=  0.59860775)
   312b -> 314b  :     0.063694 (c= -0.25237636)
   313b -> 316b  :     0.019589 (c=  0.13996012)

STATE 10:  E=   0.092953 au      2.529 eV    20400.9 cm**-1 <S**2> =   2.000000 Mult 3
   306a -> 314a  :     0.020497 (c= -0.14316686)
   308a -> 314a  :     0.023849 (c= -0.15442961)
   311a -> 314a  :     0.013278 (c= -0.11522936)
   313a -> 315a  :     0.162476 (c= -0.40308277)
   313a -> 316a  :     0.159101 (c=  0.39887417)
   313a -> 318a  :     0.025794 (c= -0.16060512)
   313a -> 320a  :     0.024742 (c=  0.15729578)
   306b -> 314b  :     0.020497 (c=  0.14316686)
   308b -> 314b  :     0.023849 (c=  0.15442961)
   311b -> 314b  :     0.013278 (c=  0.11522936)
   313b -> 315b  :     0.162476 (c=  0.40308277)
   313b -> 316b  :     0.159101 (c= -0.39887417)
   313b -> 318b  :     0.025794 (c=  0.16060512)
   313b -> 320b  :     0.024742 (c= -0.15729578)

STATE 11:  E=   0.093710 au      2.550 eV    20567.0 cm**-1 <S**2> =   2.000000 Mult 3
   307a -> 314a  :     0.206682 (c= -0.45462268)
   308a -> 314a  :     0.137527 (c=  0.37084683)
   311a -> 314a  :     0.014122 (c= -0.11883657)
   313a -> 317a  :     0.010455 (c= -0.10224776)
   313a -> 319a  :     0.044896 (c=  0.21188731)
   307b -> 314b  :     0.206682 (c=  0.45462268)
   308b -> 314b  :     0.137527 (c= -0.37084683)
   311b -> 314b  :     0.014122 (c=  0.11883657)
   313b -> 317b  :     0.010455 (c=  0.10224776)
   313b -> 319b  :     0.044896 (c= -0.21188731)

STATE 12:  E=   0.096793 au      2.634 eV    21243.5 cm**-1 <S**2> =   2.000000 Mult 3
   303a -> 314a  :     0.209704 (c= -0.45793400)
   305a -> 314a  :     0.026917 (c=  0.16406433)
   306a -> 314a  :     0.118345 (c= -0.34401326)
   307a -> 314a  :     0.024626 (c= -0.15692615)
   313a -> 316a  :     0.015902 (c=  0.12610205)
   313a -> 319a  :     0.022585 (c= -0.15028295)
   303b -> 314b  :     0.209704 (c=  0.45793400)
   305b -> 314b  :     0.026917 (c= -0.16406433)
   306b -> 314b  :     0.118345 (c=  0.34401326)
   307b -> 314b  :     0.024626 (c=  0.15692615)
   313b -> 316b  :     0.015902 (c= -0.12610205)
   313b -> 319b  :     0.022585 (c=  0.15028295)

STATE 13:  E=   0.097449 au      2.652 eV    21387.7 cm**-1 <S**2> =   2.000000 Mult 3
   305a -> 314a  :     0.031278 (c=  0.17685651)
   306a -> 314a  :     0.021524 (c=  0.14671001)
   307a -> 314a  :     0.017874 (c=  0.13369518)
   308a -> 314a  :     0.013475 (c=  0.11608264)
   310a -> 314a  :     0.015317 (c=  0.12376059)
   313a -> 315a  :     0.099462 (c=  0.31537522)
   313a -> 316a  :     0.213642 (c=  0.46221473)
   313a -> 317a  :     0.019243 (c=  0.13872006)
   313a -> 319a  :     0.012235 (c=  0.11061031)
   305b -> 314b  :     0.031278 (c= -0.17685651)
   306b -> 314b  :     0.021524 (c= -0.14671001)
   307b -> 314b  :     0.017874 (c= -0.13369518)
   308b -> 314b  :     0.013475 (c= -0.11608264)
   310b -> 314b  :     0.015317 (c= -0.12376059)
   313b -> 315b  :     0.099462 (c= -0.31537522)
   313b -> 316b  :     0.213642 (c= -0.46221473)
   313b -> 317b  :     0.019243 (c= -0.13872006)
   313b -> 319b  :     0.012235 (c= -0.11061031)

STATE 14:  E=   0.097861 au      2.663 eV    21478.0 cm**-1 <S**2> =   2.000000 Mult 3
   300a -> 314a  :     0.011074 (c=  0.10523490)
   301a -> 314a  :     0.042282 (c= -0.20562470)
   302a -> 314a  :     0.012200 (c= -0.11045217)
   303a -> 314a  :     0.044490 (c= -0.21092640)
   304a -> 314a  :     0.072241 (c=  0.26877686)
   305a -> 314a  :     0.096462 (c=  0.31058268)
   306a -> 314a  :     0.094921 (c=  0.30809295)
   313a -> 315a  :     0.045347 (c= -0.21294932)
   313a -> 317a  :     0.018454 (c= -0.13584637)
   300b -> 314b  :     0.011074 (c= -0.10523490)
   301b -> 314b  :     0.042282 (c=  0.20562470)
   302b -> 314b  :     0.012200 (c=  0.11045217)
   303b -> 314b  :     0.044490 (c=  0.21092640)
   304b -> 314b  :     0.072241 (c= -0.26877686)
   305b -> 314b  :     0.096462 (c= -0.31058268)
   306b -> 314b  :     0.094921 (c= -0.30809295)
   313b -> 315b  :     0.045347 (c=  0.21294932)
   313b -> 317b  :     0.018454 (c=  0.13584637)

STATE 15:  E=   0.099443 au      2.706 eV    21825.2 cm**-1 <S**2> =   0.000000 Mult 1
   307a -> 314a  :     0.308090 (c=  0.55505830)
   308a -> 314a  :     0.088759 (c=  0.29792393)
   313a -> 316a  :     0.011410 (c=  0.10681703)
   313a -> 317a  :     0.036436 (c=  0.19088220)
   307b -> 314b  :     0.308090 (c=  0.55505830)
   308b -> 314b  :     0.088759 (c=  0.29792393)
   313b -> 316b  :     0.011410 (c=  0.10681703)
   313b -> 317b  :     0.036436 (c=  0.19088220)

STATE 16:  E=   0.101483 au      2.761 eV    22272.9 cm**-1 <S**2> =   0.000000 Mult 1
   303a -> 314a  :     0.087858 (c=  0.29640888)
   306a -> 314a  :     0.128741 (c=  0.35880464)
   307a -> 314a  :     0.084121 (c=  0.29003544)
   308a -> 314a  :     0.139567 (c= -0.37358628)
   313a -> 317a  :     0.016161 (c= -0.12712707)
   303b -> 314b  :     0.087858 (c=  0.29640888)
   306b -> 314b  :     0.128741 (c=  0.35880464)
   307b -> 314b  :     0.084121 (c=  0.29003544)
   308b -> 314b  :     0.139567 (c= -0.37358628)
   313b -> 317b  :     0.016161 (c= -0.12712707)

STATE 17:  E=   0.102993 au      2.803 eV    22604.4 cm**-1 <S**2> =   2.000000 Mult 3
   298a -> 314a  :     0.032758 (c=  0.18099057)
   299a -> 314a  :     0.023350 (c=  0.15280720)
   300a -> 314a  :     0.043702 (c= -0.20905099)
   303a -> 314a  :     0.087231 (c=  0.29534831)
   305a -> 314a  :     0.138272 (c=  0.37185007)
   306a -> 314a  :     0.012012 (c= -0.10959888)
   308a -> 314a  :     0.024406 (c= -0.15622484)
   310a -> 314a  :     0.010723 (c= -0.10355363)
   313a -> 317a  :     0.018377 (c= -0.13556181)
   298b -> 314b  :     0.032758 (c= -0.18099057)
   299b -> 314b  :     0.023350 (c= -0.15280720)
   300b -> 314b  :     0.043702 (c=  0.20905099)
   303b -> 314b  :     0.087231 (c= -0.29534831)
   305b -> 314b  :     0.138272 (c= -0.37185007)
   306b -> 314b  :     0.012012 (c=  0.10959888)
   308b -> 314b  :     0.024406 (c=  0.15622484)
   310b -> 314b  :     0.010723 (c=  0.10355363)
   313b -> 317b  :     0.018377 (c=  0.13556181)

STATE 18:  E=   0.103794 au      2.824 eV    22780.2 cm**-1 <S**2> =   0.000000 Mult 1
   300a -> 314a  :     0.017282 (c=  0.13146169)
   301a -> 314a  :     0.042050 (c= -0.20506134)
   302a -> 314a  :     0.013940 (c= -0.11806615)
   303a -> 314a  :     0.103910 (c= -0.32235101)
   304a -> 314a  :     0.081256 (c=  0.28505443)
   305a -> 314a  :     0.121539 (c=  0.34862426)
   306a -> 314a  :     0.084605 (c=  0.29086892)
   300b -> 314b  :     0.017282 (c=  0.13146169)
   301b -> 314b  :     0.042050 (c= -0.20506134)
   302b -> 314b  :     0.013940 (c= -0.11806615)
   303b -> 314b  :     0.103910 (c= -0.32235101)
   304b -> 314b  :     0.081256 (c=  0.28505443)
   305b -> 314b  :     0.121539 (c=  0.34862426)
   306b -> 314b  :     0.084605 (c=  0.29086892)

STATE 19:  E=   0.104684 au      2.849 eV    22975.5 cm**-1 <S**2> =   2.000000 Mult 3
   299a -> 314a  :     0.025181 (c=  0.15868555)
   300a -> 314a  :     0.040171 (c= -0.20042720)
   306a -> 314a  :     0.017072 (c=  0.13066173)
   308a -> 314a  :     0.038219 (c=  0.19549796)
   313a -> 315a  :     0.032015 (c= -0.17892726)
   313a -> 317a  :     0.151824 (c=  0.38964655)
   313a -> 318a  :     0.014483 (c=  0.12034718)
   313a -> 319a  :     0.087280 (c= -0.29543159)
   313a -> 320a  :     0.025615 (c=  0.16004613)
   299b -> 314b  :     0.025181 (c= -0.15868555)
   300b -> 314b  :     0.040171 (c=  0.20042720)
   306b -> 314b  :     0.017072 (c= -0.13066173)
   308b -> 314b  :     0.038219 (c= -0.19549796)
   313b -> 315b  :     0.032015 (c=  0.17892726)
   313b -> 317b  :     0.151824 (c= -0.38964655)
   313b -> 318b  :     0.014483 (c= -0.12034718)
   313b -> 319b  :     0.087280 (c=  0.29543159)
   313b -> 320b  :     0.025615 (c= -0.16004613)

STATE 20:  E=   0.106724 au      2.904 eV    23423.2 cm**-1 <S**2> =   2.000000 Mult 3
   298a -> 314a  :     0.015601 (c= -0.12490585)
   300a -> 314a  :     0.110791 (c=  0.33285343)
   301a -> 314a  :     0.037430 (c=  0.19346739)
   302a -> 314a  :     0.013994 (c=  0.11829741)
   304a -> 314a  :     0.055212 (c= -0.23497278)
   305a -> 314a  :     0.127153 (c=  0.35658555)
   313a -> 315a  :     0.011709 (c= -0.10820889)
   313a -> 317a  :     0.047444 (c=  0.21781640)
   298b -> 314b  :     0.015601 (c=  0.12490585)
   300b -> 314b  :     0.110791 (c= -0.33285343)
   301b -> 314b  :     0.037430 (c= -0.19346739)
   302b -> 314b  :     0.013994 (c= -0.11829741)
   304b -> 314b  :     0.055212 (c=  0.23497278)
   305b -> 314b  :     0.127153 (c= -0.35658555)
   313b -> 315b  :     0.011709 (c=  0.10820889)
   313b -> 317b  :     0.047444 (c= -0.21781640)

STATE 21:  E=   0.106789 au      2.906 eV    23437.5 cm**-1 <S**2> =   0.000000 Mult 1
   303a -> 314a  :     0.126968 (c= -0.35632581)
   306a -> 314a  :     0.089963 (c= -0.29993836)
   307a -> 314a  :     0.043970 (c=  0.20968998)
   308a -> 314a  :     0.070720 (c= -0.26593286)
   311a -> 314a  :     0.023925 (c=  0.15467850)
   313a -> 315a  :     0.017140 (c= -0.13091843)
   313a -> 316a  :     0.015501 (c= -0.12450136)
   313a -> 317a  :     0.024334 (c= -0.15599337)
   313a -> 319a  :     0.041399 (c=  0.20346774)
   303b -> 314b  :     0.126968 (c= -0.35632581)
   306b -> 314b  :     0.089963 (c= -0.29993836)
   307b -> 314b  :     0.043970 (c=  0.20968998)
   308b -> 314b  :     0.070720 (c= -0.26593286)
   311b -> 314b  :     0.023925 (c=  0.15467850)
   313b -> 315b  :     0.017140 (c= -0.13091843)
   313b -> 316b  :     0.015501 (c= -0.12450136)
   313b -> 317b  :     0.024334 (c= -0.15599337)
   313b -> 319b  :     0.041399 (c=  0.20346774)

STATE 22:  E=   0.107948 au      2.937 eV    23691.9 cm**-1 <S**2> =   2.000000 Mult 3
   298a -> 314a  :     0.012482 (c=  0.11172129)
   301a -> 314a  :     0.027157 (c= -0.16479508)
   306a -> 314a  :     0.025780 (c= -0.16056121)
   313a -> 316a  :     0.015570 (c= -0.12477837)
   313a -> 317a  :     0.092163 (c=  0.30358386)
   313a -> 318a  :     0.010509 (c= -0.10251526)
   313a -> 319a  :     0.199965 (c=  0.44717411)
   313a -> 321a  :     0.015572 (c= -0.12478974)
   298b -> 314b  :     0.012482 (c= -0.11172129)
   301b -> 314b  :     0.027157 (c=  0.16479508)
   306b -> 314b  :     0.025780 (c=  0.16056121)
   313b -> 316b  :     0.015570 (c=  0.12477837)
   313b -> 317b  :     0.092163 (c= -0.30358386)
   313b -> 318b  :     0.010509 (c=  0.10251526)
   313b -> 319b  :     0.199965 (c= -0.44717411)
   313b -> 321b  :     0.015572 (c=  0.12478974)

STATE 23:  E=   0.108797 au      2.961 eV    23878.1 cm**-1 <S**2> =   0.000000 Mult 1
   308a -> 314a  :     0.068699 (c=  0.26210450)
   313a -> 315a  :     0.308207 (c= -0.55516398)
   313a -> 317a  :     0.035214 (c= -0.18765279)
   313a -> 320a  :     0.025257 (c=  0.15892372)
   308b -> 314b  :     0.068699 (c=  0.26210450)
   313b -> 315b  :     0.308207 (c= -0.55516398)
   313b -> 317b  :     0.035214 (c= -0.18765279)
   313b -> 320b  :     0.025257 (c=  0.15892372)

STATE 24:  E=   0.110059 au      2.995 eV    24155.2 cm**-1 <S**2> =   2.000000 Mult 3
   299a -> 314a  :     0.011987 (c=  0.10948538)
   300a -> 314a  :     0.076672 (c= -0.27689777)
   301a -> 314a  :     0.077151 (c=  0.27775996)
   302a -> 314a  :     0.015286 (c=  0.12363472)
   303a -> 314a  :     0.075851 (c= -0.27541131)
   304a -> 314a  :     0.011022 (c= -0.10498799)
   306a -> 314a  :     0.026697 (c=  0.16339334)
   307a -> 314a  :     0.017680 (c=  0.13296521)
   308a -> 314a  :     0.030734 (c= -0.17531029)
   309a -> 314a  :     0.023956 (c= -0.15477868)
   313a -> 319a  :     0.029324 (c=  0.17124368)
   313a -> 324a  :     0.010596 (c=  0.10293468)
   299b -> 314b  :     0.011987 (c= -0.10948538)
   300b -> 314b  :     0.076672 (c=  0.27689777)
   301b -> 314b  :     0.077151 (c= -0.27775996)
   302b -> 314b  :     0.015286 (c= -0.12363472)
   303b -> 314b  :     0.075851 (c=  0.27541131)
   304b -> 314b  :     0.011022 (c=  0.10498799)
   306b -> 314b  :     0.026697 (c= -0.16339334)
   307b -> 314b  :     0.017680 (c= -0.13296521)
   308b -> 314b  :     0.030734 (c=  0.17531029)
   309b -> 314b  :     0.023956 (c=  0.15477868)
   313b -> 319b  :     0.029324 (c= -0.17124368)
   313b -> 324b  :     0.010596 (c= -0.10293468)

STATE 25:  E=   0.111184 au      3.025 eV    24402.1 cm**-1 <S**2> =   0.000000 Mult 1
   300a -> 314a  :     0.011397 (c=  0.10675514)
   303a -> 314a  :     0.040650 (c=  0.20161857)
   304a -> 314a  :     0.021234 (c= -0.14571860)
   305a -> 314a  :     0.229431 (c=  0.47898904)
   309a -> 314a  :     0.013045 (c= -0.11421628)
   311a -> 314a  :     0.010783 (c= -0.10384172)
   313a -> 316a  :     0.084443 (c= -0.29059094)
   300b -> 314b  :     0.011397 (c=  0.10675514)
   303b -> 314b  :     0.040650 (c=  0.20161857)
   304b -> 314b  :     0.021234 (c= -0.14571860)
   305b -> 314b  :     0.229431 (c=  0.47898904)
   309b -> 314b  :     0.013045 (c= -0.11421628)
   311b -> 314b  :     0.010783 (c= -0.10384172)
   313b -> 316b  :     0.084443 (c= -0.29059094)

STATE 26:  E=   0.111678 au      3.039 eV    24510.4 cm**-1 <S**2> =   2.000000 Mult 3
   297a -> 314a  :     0.022056 (c= -0.14851264)
   299a -> 314a  :     0.021172 (c= -0.14550550)
   301a -> 314a  :     0.017945 (c= -0.13395823)
   302a -> 314a  :     0.015480 (c= -0.12441846)
   309a -> 314a  :     0.228200 (c= -0.47770298)
   313a -> 320a  :     0.017439 (c=  0.13205718)
   313a -> 322a  :     0.065216 (c=  0.25537411)
   313a -> 325a  :     0.013524 (c=  0.11629131)
   313a -> 326a  :     0.016095 (c= -0.12686541)
   297b -> 314b  :     0.022056 (c=  0.14851264)
   299b -> 314b  :     0.021172 (c=  0.14550550)
   301b -> 314b  :     0.017945 (c=  0.13395823)
   302b -> 314b  :     0.015480 (c=  0.12441846)
   309b -> 314b  :     0.228200 (c=  0.47770298)
   313b -> 320b  :     0.017439 (c= -0.13205718)
   313b -> 322b  :     0.065216 (c= -0.25537411)
   313b -> 325b  :     0.013524 (c= -0.11629131)
   313b -> 326b  :     0.016095 (c=  0.12686541)

STATE 27:  E=   0.112007 au      3.048 eV    24582.8 cm**-1 <S**2> =   2.000000 Mult 3
   299a -> 314a  :     0.021458 (c=  0.14648421)
   304a -> 314a  :     0.018199 (c= -0.13490211)
   306a -> 314a  :     0.013490 (c=  0.11614682)
   309a -> 314a  :     0.090689 (c=  0.30114549)
   313a -> 317a  :     0.016164 (c= -0.12713759)
   313a -> 318a  :     0.019131 (c= -0.13831367)
   313a -> 319a  :     0.010077 (c= -0.10038539)
   313a -> 320a  :     0.010752 (c=  0.10369304)
   313a -> 321a  :     0.121387 (c= -0.34840608)
   313a -> 322a  :     0.074414 (c=  0.27278847)
   313a -> 324a  :     0.016781 (c=  0.12954321)
   313a -> 326a  :     0.027416 (c= -0.16557778)
   299b -> 314b  :     0.021458 (c= -0.14648421)
   304b -> 314b  :     0.018199 (c=  0.13490211)
   306b -> 314b  :     0.013490 (c= -0.11614682)
   309b -> 314b  :     0.090689 (c= -0.30114549)
   313b -> 317b  :     0.016164 (c=  0.12713759)
   313b -> 318b  :     0.019131 (c=  0.13831367)
   313b -> 319b  :     0.010077 (c=  0.10038539)
   313b -> 320b  :     0.010752 (c= -0.10369304)
   313b -> 321b  :     0.121387 (c=  0.34840608)
   313b -> 322b  :     0.074414 (c= -0.27278847)
   313b -> 324b  :     0.016781 (c= -0.12954321)
   313b -> 326b  :     0.027416 (c=  0.16557778)

STATE 28:  E=   0.113266 au      3.082 eV    24859.0 cm**-1 <S**2> =   2.000000 Mult 3
   309a -> 314a  :     0.037841 (c=  0.19452699)
   313a -> 321a  :     0.159911 (c=  0.39988846)
   313a -> 322a  :     0.124736 (c=  0.35318037)
   313a -> 323a  :     0.039862 (c=  0.19965536)
   313a -> 324a  :     0.058686 (c=  0.24225151)
   309b -> 314b  :     0.037841 (c= -0.19452699)
   313b -> 321b  :     0.159911 (c= -0.39988846)
   313b -> 322b  :     0.124736 (c= -0.35318037)
   313b -> 323b  :     0.039862 (c= -0.19965536)
   313b -> 324b  :     0.058686 (c= -0.24225151)

STATE 29:  E=   0.113548 au      3.090 eV    24921.0 cm**-1 <S**2> =   0.000000 Mult 1
   301a -> 314a  :     0.015542 (c=  0.12466700)
   304a -> 314a  :     0.022347 (c= -0.14948928)
   305a -> 314a  :     0.042999 (c=  0.20736274)
   306a -> 314a  :     0.012058 (c= -0.10980893)
   307a -> 314a  :     0.011769 (c= -0.10848552)
   308a -> 314a  :     0.017579 (c= -0.13258480)
   310a -> 314a  :     0.029928 (c= -0.17299789)
   313a -> 316a  :     0.230379 (c=  0.47997780)
   313a -> 317a  :     0.023432 (c=  0.15307632)
   313a -> 322a  :     0.011694 (c=  0.10814093)
   301b -> 314b  :     0.015542 (c=  0.12466700)
   304b -> 314b  :     0.022347 (c= -0.14948928)
   305b -> 314b  :     0.042999 (c=  0.20736274)
   306b -> 314b  :     0.012058 (c= -0.10980893)
   307b -> 314b  :     0.011769 (c= -0.10848552)
   308b -> 314b  :     0.017579 (c= -0.13258480)
   310b -> 314b  :     0.029928 (c= -0.17299789)
   313b -> 316b  :     0.230379 (c=  0.47997780)
   313b -> 317b  :     0.023432 (c=  0.15307632)
   313b -> 322b  :     0.011694 (c=  0.10814093)

STATE 30:  E=   0.115305 au      3.138 eV    25306.5 cm**-1 <S**2> =   0.000000 Mult 1
   297a -> 314a  :     0.014453 (c=  0.12022263)
   300a -> 314a  :     0.011372 (c=  0.10663954)
   309a -> 314a  :     0.402308 (c=  0.63427755)
   313a -> 319a  :     0.016269 (c= -0.12754900)
   297b -> 314b  :     0.014453 (c=  0.12022263)
   300b -> 314b  :     0.011372 (c=  0.10663954)
   309b -> 314b  :     0.402308 (c=  0.63427755)
   313b -> 319b  :     0.016269 (c= -0.12754900)

STATE 31:  E=   0.115514 au      3.143 eV    25352.3 cm**-1 <S**2> =   2.000000 Mult 3
   301a -> 314a  :     0.051937 (c= -0.22789604)
   302a -> 314a  :     0.027524 (c= -0.16590505)
   303a -> 314a  :     0.019853 (c= -0.14090215)
   304a -> 314a  :     0.251345 (c= -0.50134303)
   306a -> 314a  :     0.018857 (c=  0.13732048)
   313a -> 321a  :     0.021760 (c=  0.14751355)
   313a -> 324a  :     0.063317 (c= -0.25162944)
   301b -> 314b  :     0.051937 (c=  0.22789604)
   302b -> 314b  :     0.027524 (c=  0.16590505)
   303b -> 314b  :     0.019853 (c=  0.14090215)
   304b -> 314b  :     0.251345 (c=  0.50134303)
   306b -> 314b  :     0.018857 (c= -0.13732048)
   313b -> 321b  :     0.021760 (c= -0.14751355)
   313b -> 324b  :     0.063317 (c=  0.25162944)

STATE 32:  E=   0.116601 au      3.173 eV    25591.0 cm**-1 <S**2> =  -0.000000 Mult 1
   304a -> 314a  :     0.016102 (c=  0.12689333)
   308a -> 314a  :     0.048639 (c= -0.22054280)
   309a -> 314a  :     0.011977 (c= -0.10943908)
   313a -> 315a  :     0.037385 (c= -0.19335261)
   313a -> 317a  :     0.123027 (c=  0.35075160)
   313a -> 318a  :     0.025387 (c=  0.15933304)
   313a -> 319a  :     0.151346 (c= -0.38903231)
   313a -> 320a  :     0.018564 (c=  0.13624795)
   304b -> 314b  :     0.016102 (c=  0.12689333)
   308b -> 314b  :     0.048639 (c= -0.22054280)
   309b -> 314b  :     0.011977 (c= -0.10943908)
   313b -> 315b  :     0.037385 (c= -0.19335261)
   313b -> 317b  :     0.123027 (c=  0.35075160)
   313b -> 318b  :     0.025387 (c=  0.15933304)
   313b -> 319b  :     0.151346 (c= -0.38903231)
   313b -> 320b  :     0.018564 (c=  0.13624795)

STATE 33:  E=   0.116871 au      3.180 eV    25650.3 cm**-1 <S**2> =   2.000000 Mult 3
   296a -> 314a  :     0.032265 (c=  0.17962386)
   297a -> 314a  :     0.023941 (c= -0.15473033)
   298a -> 314a  :     0.024089 (c= -0.15520482)
   299a -> 314a  :     0.034196 (c= -0.18492221)
   300a -> 314a  :     0.041768 (c= -0.20437280)
   301a -> 314a  :     0.013141 (c=  0.11463553)
   304a -> 314a  :     0.022950 (c=  0.15149182)
   309a -> 314a  :     0.023876 (c=  0.15451896)
   312a -> 315a  :     0.015994 (c=  0.12646668)
   312a -> 320a  :     0.020382 (c=  0.14276600)
   313a -> 320a  :     0.012256 (c=  0.11070880)
   313a -> 324a  :     0.067827 (c= -0.26043533)
   313a -> 325a  :     0.058615 (c=  0.24210570)
   313a -> 326a  :     0.015186 (c= -0.12323333)
   296b -> 314b  :     0.032265 (c= -0.17962386)
   297b -> 314b  :     0.023941 (c=  0.15473033)
   298b -> 314b  :     0.024089 (c=  0.15520482)
   299b -> 314b  :     0.034196 (c=  0.18492221)
   300b -> 314b  :     0.041768 (c=  0.20437280)
   301b -> 314b  :     0.013141 (c= -0.11463553)
   304b -> 314b  :     0.022950 (c= -0.15149182)
   309b -> 314b  :     0.023876 (c= -0.15451896)
   312b -> 315b  :     0.015994 (c= -0.12646668)
   312b -> 320b  :     0.020382 (c= -0.14276600)
   313b -> 320b  :     0.012256 (c= -0.11070880)
   313b -> 324b  :     0.067827 (c=  0.26043533)
   313b -> 325b  :     0.058615 (c= -0.24210570)
   313b -> 326b  :     0.015186 (c=  0.12323333)

STATE 34:  E=   0.117564 au      3.199 eV    25802.4 cm**-1 <S**2> =   2.000000 Mult 3
   296a -> 314a  :     0.011960 (c=  0.10936255)
   299a -> 314a  :     0.097037 (c= -0.31150786)
   300a -> 314a  :     0.013316 (c= -0.11539659)
   304a -> 314a  :     0.010157 (c= -0.10078291)
   312a -> 315a  :     0.020487 (c=  0.14313298)
   312a -> 320a  :     0.027206 (c=  0.16494259)
   313a -> 321a  :     0.056565 (c= -0.23783473)
   313a -> 322a  :     0.017795 (c= -0.13339827)
   313a -> 324a  :     0.081562 (c=  0.28559090)
   313a -> 325a  :     0.012042 (c= -0.10973520)
   313a -> 326a  :     0.041566 (c=  0.20387845)
   296b -> 314b  :     0.011960 (c= -0.10936255)
   299b -> 314b  :     0.097037 (c=  0.31150786)
   300b -> 314b  :     0.013316 (c=  0.11539659)
   304b -> 314b  :     0.010157 (c=  0.10078291)
   312b -> 315b  :     0.020487 (c= -0.14313298)
   312b -> 320b  :     0.027206 (c= -0.16494259)
   313b -> 321b  :     0.056565 (c=  0.23783473)
   313b -> 322b  :     0.017795 (c=  0.13339827)
   313b -> 324b  :     0.081562 (c= -0.28559090)
   313b -> 325b  :     0.012042 (c=  0.10973520)
   313b -> 326b  :     0.041566 (c= -0.20387845)

STATE 35:  E=   0.118178 au      3.216 eV    25937.1 cm**-1 <S**2> =   2.000000 Mult 3
   292a -> 314a  :     0.010183 (c= -0.10091290)
   296a -> 314a  :     0.014163 (c=  0.11900707)
   298a -> 314a  :     0.038654 (c=  0.19660589)
   299a -> 314a  :     0.065907 (c= -0.25672333)
   300a -> 314a  :     0.013098 (c= -0.11444645)
   309a -> 314a  :     0.014019 (c=  0.11840070)
   309a -> 318a  :     0.020062 (c= -0.14163969)
   312a -> 315a  :     0.073937 (c= -0.27191367)
   312a -> 320a  :     0.089837 (c= -0.29972738)
   292b -> 314b  :     0.010183 (c=  0.10091290)
   296b -> 314b  :     0.014163 (c= -0.11900707)
   298b -> 314b  :     0.038654 (c= -0.19660589)
   299b -> 314b  :     0.065907 (c=  0.25672333)
   300b -> 314b  :     0.013098 (c=  0.11444645)
   309b -> 314b  :     0.014019 (c= -0.11840070)
   309b -> 318b  :     0.020062 (c=  0.14163969)
   312b -> 315b  :     0.073937 (c=  0.27191367)
   312b -> 320b  :     0.089837 (c=  0.29972738)

STATE 36:  E=   0.118494 au      3.224 eV    26006.5 cm**-1 <S**2> =   0.000000 Mult 1
   296a -> 314a  :     0.010428 (c=  0.10211592)
   300a -> 314a  :     0.011496 (c= -0.10721717)
   301a -> 314a  :     0.012054 (c=  0.10979197)
   303a -> 314a  :     0.040378 (c= -0.20094400)
   304a -> 314a  :     0.136384 (c= -0.36930146)
   306a -> 314a  :     0.084407 (c=  0.29052967)
   313a -> 317a  :     0.076601 (c=  0.27676948)
   313a -> 319a  :     0.032691 (c=  0.18080542)
   313a -> 321a  :     0.014457 (c= -0.12023752)
   313a -> 322a  :     0.021257 (c= -0.14579770)
   296b -> 314b  :     0.010428 (c=  0.10211592)
   300b -> 314b  :     0.011496 (c= -0.10721717)
   301b -> 314b  :     0.012054 (c=  0.10979197)
   303b -> 314b  :     0.040378 (c= -0.20094400)
   304b -> 314b  :     0.136384 (c= -0.36930146)
   306b -> 314b  :     0.084407 (c=  0.29052967)
   313b -> 317b  :     0.076601 (c=  0.27676948)
   313b -> 319b  :     0.032691 (c=  0.18080542)
   313b -> 321b  :     0.014457 (c= -0.12023752)
   313b -> 322b  :     0.021257 (c= -0.14579770)

STATE 37:  E=   0.118524 au      3.225 eV    26012.9 cm**-1 <S**2> =  -0.000000 Mult 1
   299a -> 314a  :     0.011664 (c=  0.10799805)
   301a -> 314a  :     0.017799 (c= -0.13341190)
   303a -> 314a  :     0.011523 (c= -0.10734565)
   304a -> 314a  :     0.130359 (c= -0.36105245)
   313a -> 317a  :     0.026434 (c= -0.16258520)
   313a -> 318a  :     0.024852 (c=  0.15764406)
   313a -> 319a  :     0.084768 (c= -0.29115001)
   313a -> 320a  :     0.012345 (c= -0.11110749)
   313a -> 321a  :     0.112810 (c=  0.33587168)
   313a -> 322a  :     0.010007 (c= -0.10003254)
   299b -> 314b  :     0.011664 (c=  0.10799805)
   301b -> 314b  :     0.017799 (c= -0.13341190)
   303b -> 314b  :     0.011523 (c= -0.10734565)
   304b -> 314b  :     0.130359 (c= -0.36105245)
   313b -> 317b  :     0.026434 (c= -0.16258520)
   313b -> 318b  :     0.024852 (c=  0.15764406)
   313b -> 319b  :     0.084768 (c= -0.29115001)
   313b -> 320b  :     0.012345 (c= -0.11110749)
   313b -> 321b  :     0.112810 (c=  0.33587168)
   313b -> 322b  :     0.010007 (c= -0.10003254)

STATE 38:  E=   0.120923 au      3.290 eV    26539.5 cm**-1 <S**2> =   0.000000 Mult 1
   297a -> 314a  :     0.045438 (c= -0.21316135)
   298a -> 314a  :     0.025851 (c=  0.16078361)
   300a -> 314a  :     0.010254 (c= -0.10126149)
   301a -> 314a  :     0.137111 (c= -0.37028529)
   302a -> 314a  :     0.072563 (c= -0.26937505)
   304a -> 314a  :     0.016348 (c= -0.12786064)
   309a -> 314a  :     0.014793 (c=  0.12162670)
   313a -> 321a  :     0.083953 (c= -0.28974637)
   313a -> 322a  :     0.024682 (c= -0.15710643)
   297b -> 314b  :     0.045438 (c= -0.21316135)
   298b -> 314b  :     0.025851 (c=  0.16078361)
   300b -> 314b  :     0.010254 (c= -0.10126149)
   301b -> 314b  :     0.137111 (c= -0.37028529)
   302b -> 314b  :     0.072563 (c= -0.26937505)
   304b -> 314b  :     0.016348 (c= -0.12786064)
   309b -> 314b  :     0.014793 (c=  0.12162670)
   313b -> 321b  :     0.083953 (c= -0.28974637)
   313b -> 322b  :     0.024682 (c= -0.15710643)

STATE 39:  E=   0.121371 au      3.303 eV    26637.8 cm**-1 <S**2> =   0.000000 Mult 1
   300a -> 314a  :     0.019633 (c= -0.14011605)
   303a -> 314a  :     0.023892 (c=  0.15457002)
   304a -> 314a  :     0.035801 (c=  0.18921063)
   313a -> 315a  :     0.014548 (c= -0.12061449)
   313a -> 317a  :     0.033057 (c=  0.18181453)
   313a -> 319a  :     0.032428 (c=  0.18007816)
   313a -> 321a  :     0.117363 (c=  0.34258336)
   313a -> 322a  :     0.072019 (c= -0.26836336)
   313a -> 324a  :     0.068646 (c= -0.26200442)
   300b -> 314b  :     0.019633 (c= -0.14011605)
   303b -> 314b  :     0.023892 (c=  0.15457002)
   304b -> 314b  :     0.035801 (c=  0.18921063)
   313b -> 315b  :     0.014548 (c= -0.12061449)
   313b -> 317b  :     0.033057 (c=  0.18181453)
   313b -> 319b  :     0.032428 (c=  0.18007816)
   313b -> 321b  :     0.117363 (c=  0.34258336)
   313b -> 322b  :     0.072019 (c= -0.26836336)
   313b -> 324b  :     0.068646 (c= -0.26200442)

STATE 40:  E=   0.121658 au      3.310 eV    26700.9 cm**-1 <S**2> =   0.000000 Mult 1
   296a -> 314a  :     0.038071 (c=  0.19511835)
   298a -> 314a  :     0.031992 (c=  0.17886247)
   300a -> 314a  :     0.091152 (c= -0.30191402)
   301a -> 314a  :     0.037802 (c=  0.19442621)
   313a -> 316a  :     0.026672 (c=  0.16331565)
   313a -> 317a  :     0.053601 (c= -0.23151879)
   313a -> 319a  :     0.040127 (c= -0.20031715)
   313a -> 321a  :     0.036469 (c= -0.19096906)
   313a -> 322a  :     0.010828 (c= -0.10405585)
   313a -> 323a  :     0.011819 (c= -0.10871675)
   313a -> 324a  :     0.022285 (c= -0.14928161)
   296b -> 314b  :     0.038071 (c=  0.19511835)
   298b -> 314b  :     0.031992 (c=  0.17886247)
   300b -> 314b  :     0.091152 (c= -0.30191402)
   301b -> 314b  :     0.037802 (c=  0.19442621)
   313b -> 316b  :     0.026672 (c=  0.16331565)
   313b -> 317b  :     0.053601 (c= -0.23151879)
   313b -> 319b  :     0.040127 (c= -0.20031715)
   313b -> 321b  :     0.036469 (c= -0.19096906)
   313b -> 322b  :     0.010828 (c= -0.10405585)
   313b -> 323b  :     0.011819 (c= -0.10871675)
   313b -> 324b  :     0.022285 (c= -0.14928161)

STATE 41:  E=   0.122106 au      3.323 eV    26799.2 cm**-1 <S**2> =   0.000000 Mult 1
   296a -> 314a  :     0.025936 (c= -0.16104633)
   298a -> 314a  :     0.046077 (c= -0.21465602)
   299a -> 314a  :     0.015138 (c= -0.12303716)
   300a -> 314a  :     0.077086 (c=  0.27764355)
   313a -> 316a  :     0.024379 (c=  0.15613639)
   313a -> 321a  :     0.035898 (c= -0.18946885)
   313a -> 322a  :     0.130779 (c= -0.36163346)
   313a -> 323a  :     0.013413 (c= -0.11581544)
   313a -> 324a  :     0.059557 (c= -0.24404231)
   296b -> 314b  :     0.025936 (c= -0.16104623)
   298b -> 314b  :     0.046077 (c= -0.21465600)
   299b -> 314b  :     0.015138 (c= -0.12303704)
   300b -> 314b  :     0.077086 (c=  0.27764355)
   313b -> 316b  :     0.024379 (c=  0.15613639)
   313b -> 321b  :     0.035898 (c= -0.18946886)
   313b -> 322b  :     0.130779 (c= -0.36163349)
   313b -> 323b  :     0.013413 (c= -0.11581542)
   313b -> 324b  :     0.059557 (c= -0.24404226)

STATE 42:  E=   0.122106 au      3.323 eV    26799.2 cm**-1 <S**2> =   2.000000 Mult 3
   295a -> 314a  :     0.031525 (c=  0.17755272)
   296a -> 314a  :     0.059237 (c=  0.24338648)
   297a -> 314a  :     0.176572 (c= -0.42020465)
   299a -> 314a  :     0.076475 (c=  0.27654091)
   302a -> 314a  :     0.011337 (c= -0.10647513)
   312a -> 318a  :     0.017208 (c= -0.13117965)
   313a -> 324a  :     0.013881 (c=  0.11781683)
   295b -> 314b  :     0.031525 (c= -0.17755276)
   296b -> 314b  :     0.059237 (c= -0.24338655)
   297b -> 314b  :     0.176572 (c=  0.42020467)
   299b -> 314b  :     0.076475 (c= -0.27654096)
   302b -> 314b  :     0.011337 (c=  0.10647515)
   312b -> 318b  :     0.017208 (c=  0.13117964)
   313b -> 324b  :     0.013881 (c= -0.11781693)

STATE 43:  E=   0.122652 au      3.338 eV    26918.9 cm**-1 <S**2> =   2.000000 Mult 3
   294a -> 314a  :     0.014082 (c=  0.11866915)
   296a -> 314a  :     0.036889 (c= -0.19206428)
   297a -> 314a  :     0.014086 (c= -0.11868332)
   298a -> 314a  :     0.217715 (c= -0.46659991)
   300a -> 314a  :     0.011425 (c= -0.10688754)
   301a -> 314a  :     0.037094 (c= -0.19259896)
   310a -> 314a  :     0.011512 (c= -0.10729212)
   312a -> 315a  :     0.011457 (c= -0.10703963)
   312a -> 320a  :     0.015108 (c= -0.12291596)
   313a -> 322a  :     0.016045 (c= -0.12666780)
   313a -> 324a  :     0.013551 (c=  0.11640945)
   294b -> 314b  :     0.014082 (c= -0.11866915)
   296b -> 314b  :     0.036889 (c=  0.19206428)
   297b -> 314b  :     0.014086 (c=  0.11868332)
   298b -> 314b  :     0.217715 (c=  0.46659991)
   300b -> 314b  :     0.011425 (c=  0.10688754)
   301b -> 314b  :     0.037094 (c=  0.19259896)
   310b -> 314b  :     0.011512 (c=  0.10729212)
   312b -> 315b  :     0.011457 (c=  0.10703963)
   312b -> 320b  :     0.015108 (c=  0.12291596)
   313b -> 322b  :     0.016045 (c=  0.12666780)
   313b -> 324b  :     0.013551 (c= -0.11640945)

STATE 44:  E=   0.125591 au      3.417 eV    27564.0 cm**-1 <S**2> =   2.000000 Mult 3
   293a -> 314a  :     0.021716 (c= -0.14736260)
   294a -> 314a  :     0.022441 (c= -0.14980250)
   296a -> 314a  :     0.023427 (c= -0.15305847)
   297a -> 314a  :     0.107673 (c= -0.32813601)
   298a -> 314a  :     0.029597 (c=  0.17203713)
   309a -> 314a  :     0.012358 (c=  0.11116793)
   311a -> 315a  :     0.014552 (c=  0.12063072)
   312a -> 316a  :     0.018563 (c=  0.13624509)
   312a -> 318a  :     0.072196 (c=  0.26869365)
   313a -> 325a  :     0.042234 (c= -0.20550878)
   293b -> 314b  :     0.021716 (c=  0.14736260)
   294b -> 314b  :     0.022441 (c=  0.14980250)
   296b -> 314b  :     0.023427 (c=  0.15305847)
   297b -> 314b  :     0.107673 (c=  0.32813601)
   298b -> 314b  :     0.029597 (c= -0.17203713)
   309b -> 314b  :     0.012358 (c= -0.11116793)
   311b -> 315b  :     0.014552 (c= -0.12063072)
   312b -> 316b  :     0.018563 (c= -0.13624509)
   312b -> 318b  :     0.072196 (c= -0.26869365)
   313b -> 325b  :     0.042234 (c=  0.20550878)

STATE 45:  E=   0.125993 au      3.428 eV    27652.2 cm**-1 <S**2> =   0.000000 Mult 1
   293a -> 314a  :     0.010297 (c= -0.10147578)
   296a -> 314a  :     0.039896 (c= -0.19973901)
   297a -> 314a  :     0.101756 (c=  0.31899147)
   298a -> 314a  :     0.024379 (c= -0.15613671)
   299a -> 314a  :     0.160626 (c=  0.40078175)
   300a -> 314a  :     0.030051 (c= -0.17335174)
   301a -> 314a  :     0.011322 (c= -0.10640519)
   302a -> 314a  :     0.011610 (c=  0.10774848)
   313a -> 319a  :     0.010088 (c=  0.10043958)
   313a -> 324a  :     0.010574 (c=  0.10282830)
   293b -> 314b  :     0.010297 (c= -0.10147578)
   296b -> 314b  :     0.039896 (c= -0.19973901)
   297b -> 314b  :     0.101756 (c=  0.31899147)
   298b -> 314b  :     0.024379 (c= -0.15613671)
   299b -> 314b  :     0.160626 (c=  0.40078175)
   300b -> 314b  :     0.030051 (c= -0.17335174)
   301b -> 314b  :     0.011322 (c= -0.10640519)
   302b -> 314b  :     0.011610 (c=  0.10774848)
   313b -> 319b  :     0.010088 (c=  0.10043958)
   313b -> 324b  :     0.010574 (c=  0.10282830)

STATE 46:  E=   0.127002 au      3.456 eV    27873.7 cm**-1 <S**2> =   2.000000 Mult 3
   296a -> 314a  :     0.022846 (c= -0.15114762)
   298a -> 314a  :     0.011352 (c=  0.10654554)
   300a -> 314a  :     0.022311 (c=  0.14936827)
   312a -> 318a  :     0.017689 (c=  0.13300157)
   313a -> 320a  :     0.027677 (c=  0.16636372)
   313a -> 322a  :     0.029036 (c= -0.17039927)
   313a -> 323a  :     0.039901 (c=  0.19975245)
   313a -> 325a  :     0.224412 (c=  0.47372136)
   313a -> 326a  :     0.012277 (c=  0.11080072)
   296b -> 314b  :     0.022846 (c=  0.15114762)
   298b -> 314b  :     0.011352 (c= -0.10654554)
   300b -> 314b  :     0.022311 (c= -0.14936827)
   312b -> 318b  :     0.017689 (c= -0.13300157)
   313b -> 320b  :     0.027677 (c= -0.16636372)
   313b -> 322b  :     0.029036 (c=  0.17039927)
   313b -> 323b  :     0.039901 (c= -0.19975245)
   313b -> 325b  :     0.224412 (c= -0.47372136)
   313b -> 326b  :     0.012277 (c= -0.11080072)

STATE 47:  E=   0.127634 au      3.473 eV    28012.4 cm**-1 <S**2> =   0.000000 Mult 1
   294a -> 314a  :     0.018415 (c=  0.13570149)
   298a -> 314a  :     0.084092 (c= -0.28998659)
   299a -> 314a  :     0.148088 (c= -0.38482183)
   300a -> 314a  :     0.120672 (c= -0.34737893)
   305a -> 314a  :     0.014566 (c=  0.12068959)
   310a -> 314a  :     0.019948 (c= -0.14123631)
   313a -> 325a  :     0.017151 (c= -0.13096161)
   294b -> 314b  :     0.018415 (c=  0.13570149)
   298b -> 314b  :     0.084092 (c= -0.28998659)
   299b -> 314b  :     0.148088 (c= -0.38482183)
   300b -> 314b  :     0.120672 (c= -0.34737893)
   305b -> 314b  :     0.014566 (c=  0.12068959)
   310b -> 314b  :     0.019948 (c= -0.14123631)
   313b -> 325b  :     0.017151 (c= -0.13096161)

STATE 48:  E=   0.127789 au      3.477 eV    28046.5 cm**-1 <S**2> =   2.000000 Mult 3
   296a -> 314a  :     0.050021 (c=  0.22365332)
   297a -> 314a  :     0.021788 (c=  0.14760646)
   313a -> 318a  :     0.010535 (c= -0.10263822)
   313a -> 321a  :     0.026568 (c=  0.16299762)
   313a -> 322a  :     0.078779 (c= -0.28067682)
   313a -> 324a  :     0.066959 (c=  0.25876400)
   313a -> 326a  :     0.166058 (c= -0.40750185)
   296b -> 314b  :     0.050021 (c= -0.22365332)
   297b -> 314b  :     0.021788 (c= -0.14760646)
   313b -> 318b  :     0.010535 (c=  0.10263822)
   313b -> 321b  :     0.026568 (c= -0.16299762)
   313b -> 322b  :     0.078779 (c=  0.28067682)
   313b -> 324b  :     0.066959 (c= -0.25876400)
   313b -> 326b  :     0.166058 (c=  0.40750185)

STATE 49:  E=   0.128172 au      3.488 eV    28130.4 cm**-1 <S**2> =   2.000000 Mult 3
   293a -> 314a  :     0.027911 (c= -0.16706708)
   296a -> 314a  :     0.142374 (c=  0.37732440)
   297a -> 314a  :     0.043155 (c=  0.20773686)
   299a -> 314a  :     0.025459 (c=  0.15955823)
   312a -> 318a  :     0.059053 (c=  0.24300837)
   313a -> 322a  :     0.011425 (c=  0.10688988)
   313a -> 326a  :     0.043885 (c=  0.20948855)
   293b -> 314b  :     0.027911 (c=  0.16706708)
   296b -> 314b  :     0.142374 (c= -0.37732440)
   297b -> 314b  :     0.043155 (c= -0.20773686)
   299b -> 314b  :     0.025459 (c= -0.15955823)
   312b -> 318b  :     0.059053 (c= -0.24300837)
   313b -> 322b  :     0.011425 (c= -0.10688988)
   313b -> 326b  :     0.043885 (c= -0.20948855)

STATE 50:  E=   0.128196 au      3.488 eV    28135.7 cm**-1 <S**2> =   0.000000 Mult 1
   296a -> 314a  :     0.043035 (c= -0.20744790)
   297a -> 314a  :     0.015662 (c=  0.12514626)
   301a -> 314a  :     0.018981 (c= -0.13777108)
   313a -> 318a  :     0.017841 (c= -0.13356879)
   313a -> 320a  :     0.027944 (c=  0.16716326)
   313a -> 322a  :     0.065848 (c=  0.25660929)
   313a -> 323a  :     0.017354 (c= -0.13173540)
   313a -> 324a  :     0.188983 (c= -0.43472195)
   313a -> 325a  :     0.026217 (c=  0.16191624)
   313a -> 326a  :     0.016971 (c= -0.13027454)
   296b -> 314b  :     0.043035 (c= -0.20744790)
   297b -> 314b  :     0.015662 (c=  0.12514626)
   301b -> 314b  :     0.018981 (c= -0.13777108)
   313b -> 318b  :     0.017841 (c= -0.13356879)
   313b -> 320b  :     0.027944 (c=  0.16716326)
   313b -> 322b  :     0.065848 (c=  0.25660929)
   313b -> 323b  :     0.017354 (c= -0.13173540)
   313b -> 324b  :     0.188983 (c= -0.43472195)
   313b -> 325b  :     0.026217 (c=  0.16191624)
   313b -> 326b  :     0.016971 (c= -0.13027454)

Storing amplitudes in GBW file ... 
... GBW file created

-----------------------------
TD-DFT/TDA-EXCITATION SPECTRA
-----------------------------

Center of mass = ( -0.1961,  0.0730,  0.0062)
Generating CIS transition densities           ... done

UHF/UKS reference: multiplicity estimated based on rounded <S**2> value, use it judiciously!

----------------------------------------------------------------------------------------------------
                     ABSORPTION SPECTRUM VIA TRANSITION ELECTRIC DIPOLE MOMENTS    
----------------------------------------------------------------------------------------------------
     Transition      Energy     Energy  Wavelength fosc(D2)      D2        DX        DY        DZ   
                      (eV)      (cm-1)    (nm)                 (au**2)    (au)      (au)      (au)  
----------------------------------------------------------------------------------------------------
  0-1A  ->  1-3A   -1.343608  -10836.9     0.0   -0.000000000   0.00000  -0.00000  -0.00000   0.00000
  0-1A  ->  2-1A    1.335775   10773.7   928.2   1.526870199  46.65636  -3.52171  -5.73678   1.15897
  0-1A  ->  3-3A    1.849722   14919.0   670.3   0.000000000   0.00000  -0.00000  -0.00000   0.00000
  0-1A  ->  4-3A    1.988825   16041.0   623.4   0.000000000   0.00000   0.00000  -0.00000   0.00000
  0-1A  ->  5-1A    2.157689   17402.9   574.6   0.234861718   4.44289  -1.95857   0.77621   0.06615
  0-1A  ->  6-3A    2.268791   18299.0   546.5   0.000000000   0.00000   0.00000  -0.00000   0.00000
  0-1A  ->  7-1A    2.358524   19022.8   525.7   0.064264533   1.11217   0.28656   0.55973  -0.84662
  0-1A  ->  8-3A    2.428527   19587.4   510.5   0.000000000   0.00000  -0.00000  -0.00000  -0.00000
  0-1A  ->  9-1A    2.456478   19812.8   504.7   0.077286189   1.28419   1.07415  -0.34137  -0.11770
  0-1A  -> 10-3A    2.529387   20400.9   490.2   0.000000000   0.00000  -0.00000   0.00000  -0.00000
  0-1A  -> 11-3A    2.549978   20567.0   486.2   0.000000000   0.00000  -0.00000   0.00000   0.00000
  0-1A  -> 12-3A    2.633862   21243.5   470.7   0.000000000   0.00000   0.00000  -0.00000  -0.00000
  0-1A  -> 13-3A    2.651732   21387.7   467.6   0.000000000   0.00000   0.00000   0.00000  -0.00000
  0-1A  -> 14-3A    2.662931   21478.0   465.6   0.000000000   0.00000  -0.00000   0.00000   0.00000
  0-1A  -> 15-1A    2.705979   21825.2   458.2   0.080590090   1.21562  -0.68598  -0.84877  -0.15699
  0-1A  -> 16-1A    2.761490   22272.9   449.0   0.026104273   0.38584   0.29258   0.54774   0.01481
  0-1A  -> 17-3A    2.802590   22604.4   442.4   0.000000000   0.00000  -0.00000  -0.00000   0.00000
  0-1A  -> 18-1A    2.824388   22780.2   439.0   0.005249534   0.07586  -0.06030   0.26800   0.02010
  0-1A  -> 19-3A    2.848596   22975.5   435.2   0.000000000   0.00000  -0.00000   0.00000   0.00000
  0-1A  -> 20-3A    2.904105   23423.2   426.9   0.000000000   0.00000  -0.00000   0.00000  -0.00000
  0-1A  -> 21-1A    2.905878   23437.5   426.7   0.032388124   0.45494  -0.49516   0.14895  -0.43309
  0-1A  -> 22-3A    2.937425   23691.9   422.1   0.000000000   0.00000  -0.00000  -0.00000  -0.00000
  0-1A  -> 23-1A    2.960511   23878.1   418.8   0.161910928   2.23229  -0.57163  -0.90213  -1.04484
  0-1A  -> 24-3A    2.994868   24155.2   414.0   0.000000000   0.00000   0.00000  -0.00000   0.00000
  0-1A  -> 25-1A    3.025477   24402.1   409.8   0.147830563   1.99440   1.11711  -0.67521   0.53903
  0-1A  -> 26-3A    3.038906   24510.4   408.0   0.000000000   0.00000   0.00000  -0.00000   0.00000
  0-1A  -> 27-3A    3.047874   24582.8   406.8   0.000000000   0.00000  -0.00000   0.00000   0.00000
  0-1A  -> 28-3A    3.082128   24859.0   402.3   0.000000000   0.00000   0.00000  -0.00000  -0.00000
  0-1A  -> 29-1A    3.089807   24921.0   401.3   0.681096370   8.99744  -2.45443   1.68465   0.36765
  0-1A  -> 30-1A    3.137606   25306.5   395.2   0.002194565   0.02855   0.13693   0.09403   0.03097
  0-1A  -> 31-3A    3.143286   25352.3   394.4   0.000000000   0.00000  -0.00000   0.00000  -0.00000
  0-1A  -> 32-1A    3.172883   25591.0   390.8   0.292794267   3.76661   0.98480   1.67144   0.05541
  0-1A  -> 33-3A    3.180227   25650.3   389.9   0.000000000   0.00000   0.00000   0.00000   0.00000
  0-1A  -> 34-3A    3.199088   25802.4   387.6   0.000000000   0.00000  -0.00000  -0.00000  -0.00000
  0-1A  -> 35-3A    3.215794   25937.1   385.5   0.000000000   0.00000  -0.00000  -0.00000  -0.00000
  0-1A  -> 36-1A    3.224397   26006.5   384.5   0.078859450   0.99827   0.79631   0.54007   0.26921
  0-1A  -> 37-1A    3.225189   26012.9   384.4   0.015485352   0.19598  -0.42957   0.09963  -0.03904
  0-1A  -> 38-1A    3.290473   26539.5   376.8   0.026725324   0.33152  -0.37534   0.41293   0.14187
  0-1A  -> 39-1A    3.302665   26637.8   375.4   0.039265806   0.48528   0.58013   0.27374  -0.27164
  0-1A  -> 40-1A    3.310490   26700.9   374.5   0.190743980   2.35180  -1.51892  -0.02290  -0.21013
  0-1A  -> 41-1A    3.322672   26799.2   373.1   0.181607180   2.23094  -0.72366   1.30654  -0.01407
  0-1A  -> 42-3A    3.322679   26799.2   373.1   0.000000000   0.00000  -0.00000   0.00000  -0.00000
  0-1A  -> 43-3A    3.337522   26918.9   371.5   0.000000000   0.00000  -0.00000  -0.00000   0.00000
  0-1A  -> 44-3A    3.417496   27564.0   362.8   0.000000000   0.00000   0.00000   0.00000  -0.00000
  0-1A  -> 45-1A    3.428440   27652.2   361.6   0.009441899   0.11241  -0.22849   0.08585  -0.22985
  0-1A  -> 46-3A    3.455892   27873.7   358.8   0.000000000   0.00000  -0.00000  -0.00000  -0.00000
  0-1A  -> 47-1A    3.473091   28012.4   357.0   0.135013896   1.58673  -1.21916  -0.31412   0.04139
  0-1A  -> 48-3A    3.477320   28046.5   356.6   0.000000000   0.00000  -0.00000  -0.00000  -0.00000
  0-1A  -> 49-3A    3.487725   28130.4   355.5   0.000000000   0.00000   0.00000  -0.00000   0.00000
  0-1A  -> 50-1A    3.488385   28135.7   355.4   0.106003759   1.24033   0.84865  -0.66151   0.28727

----------------------------------------------------------------------------------------------------
                     ABSORPTION SPECTRUM VIA TRANSITION VELOCITY DIPOLE MOMENTS    
----------------------------------------------------------------------------------------------------
     Transition      Energy     Energy  Wavelength fosc(P2)      P2        PX        PY        PZ   
                      (eV)      (cm-1)    (nm)                 (au**2)    (au)      (au)      (au)  
----------------------------------------------------------------------------------------------------
  0-1A  ->  1-3A   -1.343608  -10836.9     0.0   -0.000000000   0.00000  -0.00000  -0.00000   0.00000
  0-1A  ->  2-1A    1.335775   10773.7   928.2   2.875781798   0.21175  -0.23619  -0.39233   0.04522
  0-1A  ->  3-3A    1.849722   14919.0   670.3   0.000000000   0.00000   0.00000  -0.00000   0.00000
  0-1A  ->  4-3A    1.988825   16041.0   623.4   0.000000000   0.00000  -0.00000   0.00000   0.00000
  0-1A  ->  5-1A    2.157689   17402.9   574.6   0.000663372   0.00008   0.00685  -0.00550   0.00133
  0-1A  ->  6-3A    2.268791   18299.0   546.5   0.000000000   0.00000   0.00000  -0.00000   0.00000
  0-1A  ->  7-1A    2.358524   19022.8   525.7   0.023112340   0.00300  -0.00571   0.00070  -0.05451
  0-1A  ->  8-3A    2.428527   19587.4   510.5   0.000000000   0.00000   0.00000  -0.00000  -0.00000
  0-1A  ->  9-1A    2.456478   19812.8   504.7   0.001982542   0.00027  -0.01499  -0.00226   0.00621
  0-1A  -> 10-3A    2.529387   20400.9   490.2   0.000000000   0.00000   0.00000  -0.00000  -0.00000
  0-1A  -> 11-3A    2.549978   20567.0   486.2   0.000000000   0.00000   0.00000  -0.00000   0.00000
  0-1A  -> 12-3A    2.633862   21243.5   470.7   0.000000000   0.00000  -0.00000  -0.00000  -0.00000
  0-1A  -> 13-3A    2.651732   21387.7   467.6   0.000000000   0.00000  -0.00000   0.00000  -0.00000
  0-1A  -> 14-3A    2.662931   21478.0   465.6   0.000000000   0.00000  -0.00000   0.00000   0.00000
  0-1A  -> 15-1A    2.705979   21825.2   458.2   0.006703566   0.00100   0.02224  -0.01694  -0.01477
  0-1A  -> 16-1A    2.761490   22272.9   449.0   0.008140118   0.00124   0.02817  -0.01984   0.00719
  0-1A  -> 17-3A    2.802590   22604.4   442.4   0.000000000   0.00000  -0.00000   0.00000   0.00000
  0-1A  -> 18-1A    2.824388   22780.2   439.0   0.001450920   0.00023  -0.00029   0.00117  -0.01498
  0-1A  -> 19-3A    2.848596   22975.5   435.2   0.000000000   0.00000   0.00000  -0.00000   0.00000
  0-1A  -> 20-3A    2.904105   23423.2   426.9   0.000000000   0.00000   0.00000  -0.00000  -0.00000
  0-1A  -> 21-1A    2.905878   23437.5   426.7   0.003047167   0.00049   0.01421  -0.00382  -0.01648
  0-1A  -> 22-3A    2.937425   23691.9   422.1   0.000000000   0.00000   0.00000   0.00000  -0.00000
  0-1A  -> 23-1A    2.960511   23878.1   418.8   0.026115540   0.00426  -0.01327  -0.03457  -0.05377
  0-1A  -> 24-3A    2.994868   24155.2   414.0   0.000000000   0.00000   0.00000   0.00000   0.00000
  0-1A  -> 25-1A    3.025477   24402.1   409.8   0.012591390   0.00210  -0.01461   0.02611   0.03471
  0-1A  -> 26-3A    3.038906   24510.4   408.0   0.000000000   0.00000  -0.00000   0.00000   0.00000
  0-1A  -> 27-3A    3.047874   24582.8   406.8   0.000000000   0.00000   0.00000  -0.00000   0.00000
  0-1A  -> 28-3A    3.082128   24859.0   402.3   0.000000000   0.00000  -0.00000   0.00000  -0.00000
  0-1A  -> 29-1A    3.089807   24921.0   401.3   0.052435205   0.00893   0.05636  -0.06192   0.04382
  0-1A  -> 30-1A    3.137606   25306.5   395.2   0.001029044   0.00018  -0.00909  -0.00875   0.00435
  0-1A  -> 31-3A    3.143286   25352.3   394.4   0.000000000   0.00000   0.00000  -0.00000   0.00000
  0-1A  -> 32-1A    3.172883   25591.0   390.8   0.019579991   0.00342  -0.00959  -0.04500   0.03617
  0-1A  -> 33-3A    3.180227   25650.3   389.9   0.000000000   0.00000  -0.00000  -0.00000   0.00000
  0-1A  -> 34-3A    3.199088   25802.4   387.6   0.000000000   0.00000   0.00000  -0.00000   0.00000
  0-1A  -> 35-3A    3.215794   25937.1   385.5   0.000000000   0.00000   0.00000   0.00000  -0.00000
  0-1A  -> 36-1A    3.224397   26006.5   384.5   0.010367234   0.00184  -0.03849   0.00380   0.01863
  0-1A  -> 37-1A    3.225189   26012.9   384.4   0.011001603   0.00196   0.03515  -0.02409   0.01183
  0-1A  -> 38-1A    3.290473   26539.5   376.8   0.003121043   0.00057   0.01191  -0.01675   0.01199
  0-1A  -> 39-1A    3.302665   26637.8   375.4   0.009252557   0.00168  -0.00290  -0.03657  -0.01840
  0-1A  -> 40-1A    3.310490   26700.9   374.5   0.028572210   0.00521   0.03863  -0.05400  -0.02839
  0-1A  -> 41-1A    3.322672   26799.2   373.1   0.023415864   0.00429   0.06481  -0.00935  -0.00083
  0-1A  -> 42-3A    3.322679   26799.2   373.1   0.000000000   0.00000   0.00000  -0.00000  -0.00000
  0-1A  -> 43-3A    3.337522   26918.9   371.5   0.000000000   0.00000   0.00000   0.00000  -0.00000
  0-1A  -> 44-3A    3.417496   27564.0   362.8   0.000000000   0.00000  -0.00000  -0.00000   0.00000
  0-1A  -> 45-1A    3.428440   27652.2   361.6   0.006600459   0.00125  -0.01344  -0.02564  -0.02023
  0-1A  -> 46-3A    3.455892   27873.7   358.8   0.000000000   0.00000   0.00000   0.00000   0.00000
  0-1A  -> 47-1A    3.473091   28012.4   357.0   0.017308049   0.00331   0.05401  -0.01957  -0.00370
  0-1A  -> 48-3A    3.477320   28046.5   356.6   0.000000000   0.00000   0.00000  -0.00000  -0.00000
  0-1A  -> 49-3A    3.487725   28130.4   355.5   0.000000000   0.00000  -0.00000  -0.00000   0.00000
  0-1A  -> 50-1A    3.488385   28135.7   355.4   0.003606371   0.00069  -0.01298  -0.00481   0.02240

------------------------------------------------------------------------------------------
                     CD SPECTRUM VIA TRANSITION ELECTRIC DIPOLE MOMENTS    
------------------------------------------------------------------------------------------
     Transition      Energy     Energy  Wavelength    R        MX        MY        MZ   
                      (eV)      (cm-1)    (nm)   (1e40*cgs)   (au)      (au)      (au)  
------------------------------------------------------------------------------------------
  0-1A  ->  1-3A   -1.343608  -10836.9     0.0    0.00000   0.00000   0.00000  -0.00000
  0-1A  ->  2-1A    1.335775   10773.7   928.2  1946.09135   0.24465   0.38509  -0.91213
  0-1A  ->  3-3A    1.849722   14919.0   670.3   -0.00000  -0.00000  -0.00000   0.00000
  0-1A  ->  4-3A    1.988825   16041.0   623.4    0.00000  -0.00000   0.00000   0.00000
  0-1A  ->  5-1A    2.157689   17402.9   574.6   35.49752   0.01003  -0.07739   0.06670
  0-1A  ->  6-3A    2.268791   18299.0   546.5   -0.00000  -0.00000   0.00000   0.00000
  0-1A  ->  7-1A    2.358524   19022.8   525.7  -332.51300   0.07596   0.01183  -0.79955
  0-1A  ->  8-3A    2.428527   19587.4   510.5   -0.00000  -0.00000   0.00000  -0.00000
  0-1A  ->  9-1A    2.456478   19812.8   504.7   12.01891  -0.03036   0.04763  -0.19866
  0-1A  -> 10-3A    2.529387   20400.9   490.2   -0.00000   0.00000  -0.00000  -0.00000
  0-1A  -> 11-3A    2.549978   20567.0   486.2   -0.00000   0.00000   0.00000   0.00000
  0-1A  -> 12-3A    2.633862   21243.5   470.7    0.00000  -0.00000   0.00000  -0.00000
  0-1A  -> 13-3A    2.651732   21387.7   467.6   -0.00000   0.00000   0.00000  -0.00000
  0-1A  -> 14-3A    2.662931   21478.0   465.6    0.00000   0.00000  -0.00000   0.00000
  0-1A  -> 15-1A    2.705979   21825.2   458.2    3.86000  -0.07851   0.07352  -0.00227
  0-1A  -> 16-1A    2.761490   22272.9   449.0   -8.56168  -0.02076   0.04964  -0.19951
  0-1A  -> 17-3A    2.802590   22604.4   442.4   -0.00000  -0.00000  -0.00000   0.00000
  0-1A  -> 18-1A    2.824388   22780.2   439.0   -1.61630   0.08864   0.01986   0.17169
  0-1A  -> 19-3A    2.848596   22975.5   435.2   -0.00000  -0.00000  -0.00000   0.00000
  0-1A  -> 20-3A    2.904105   23423.2   426.9   -0.00000   0.00000   0.00000  -0.00000
  0-1A  -> 21-1A    2.905878   23437.5   426.7  -126.20401   0.01879   0.05874  -0.61939
  0-1A  -> 22-3A    2.937425   23691.9   422.1   -0.00000  -0.00000  -0.00000   0.00000
  0-1A  -> 23-1A    2.960511   23878.1   418.8  -605.98887   0.08547   0.10874  -1.37085
  0-1A  -> 24-3A    2.994868   24155.2   414.0   -0.00000  -0.00000   0.00000   0.00000
  0-1A  -> 25-1A    3.025477   24402.1   409.8  -93.25512  -0.09675   0.00286   0.57106
  0-1A  -> 26-3A    3.038906   24510.4   408.0   -0.00000  -0.00000  -0.00000   0.00000
  0-1A  -> 27-3A    3.047874   24582.8   406.8    0.00000   0.00000  -0.00000  -0.00000
  0-1A  -> 28-3A    3.082128   24859.0   402.3    0.00000   0.00000   0.00000   0.00000
  0-1A  -> 29-1A    3.089807   24921.0   401.3  338.50292   0.13242  -0.23760   0.01985
  0-1A  -> 30-1A    3.137606   25306.5   395.2   -0.08521  -0.00441   0.00600   0.00711
  0-1A  -> 31-3A    3.143286   25352.3   394.4    0.00000   0.00000  -0.00000  -0.00000
  0-1A  -> 32-1A    3.172883   25591.0   390.8  -42.67382  -0.06561   0.10841  -0.47046
  0-1A  -> 33-3A    3.180227   25650.3   389.9    0.00000  -0.00000  -0.00000  -0.00000
  0-1A  -> 34-3A    3.199088   25802.4   387.6   -0.00000  -0.00000  -0.00000  -0.00000
  0-1A  -> 35-3A    3.215794   25937.1   385.5    0.00000   0.00000   0.00000  -0.00000
  0-1A  -> 36-1A    3.224397   26006.5   384.5  -11.68792   0.03063  -0.04589   0.09356
  0-1A  -> 37-1A    3.225189   26012.9   384.4  -27.95226  -0.11761   0.02277  -0.16653
  0-1A  -> 38-1A    3.290473   26539.5   376.8  -12.72368   0.00638   0.10442  -0.09680
  0-1A  -> 39-1A    3.302665   26637.8   375.4  -80.57616   0.08214   0.02876  -0.42478
  0-1A  -> 40-1A    3.310490   26700.9   374.5   -9.34224  -0.02906   0.03306   0.11217
  0-1A  -> 41-1A    3.322672   26799.2   373.1    4.72164   0.09049   0.04206  -0.03698
  0-1A  -> 42-3A    3.322679   26799.2   373.1    0.00000   0.00000   0.00000  -0.00000
  0-1A  -> 43-3A    3.337522   26918.9   371.5    0.00000   0.00000   0.00000   0.00000
  0-1A  -> 44-3A    3.417496   27564.0   362.8   -0.00000   0.00000   0.00000  -0.00000
  0-1A  -> 45-1A    3.428440   27652.2   361.6  -51.19619   0.04724   0.04186  -0.50377
  0-1A  -> 46-3A    3.455892   27873.7   358.8   -0.00000  -0.00000  -0.00000   0.00000
  0-1A  -> 47-1A    3.473091   28012.4   357.0  -54.04844  -0.04243  -0.12471   0.57359
  0-1A  -> 48-3A    3.477320   28046.5   356.6    0.00000   0.00000  -0.00000   0.00000
  0-1A  -> 49-3A    3.487725   28130.4   355.5    0.00000  -0.00000   0.00000   0.00000
  0-1A  -> 50-1A    3.488385   28135.7   355.4   61.15750  -0.16725   0.09607   0.26374

------------------------------------------------------------------------------------------
                     CD SPECTRUM VIA TRANSITION VELOCITY DIPOLE MOMENTS    
------------------------------------------------------------------------------------------
     Transition      Energy     Energy  Wavelength    R        MX        MY        MZ   
                      (eV)      (cm-1)    (nm)   (1e40*cgs)   (au)      (au)      (au)  
------------------------------------------------------------------------------------------
  0-1A  ->  1-3A   -1.343608  -10836.9     0.0    0.00000   0.00000   0.00000  -0.00000
  0-1A  ->  2-1A    1.335775   10773.7   928.2  -2402.11480   0.24465   0.38509  -0.91213
  0-1A  ->  3-3A    1.849722   14919.0   670.3    0.00000  -0.00000  -0.00000   0.00000
  0-1A  ->  4-3A    1.988825   16041.0   623.4    0.00000  -0.00000   0.00000   0.00000
  0-1A  ->  5-1A    2.157689   17402.9   574.6    3.46602   0.01003  -0.07739   0.06670
  0-1A  ->  6-3A    2.268791   18299.0   546.5    0.00000  -0.00000   0.00000   0.00000
  0-1A  ->  7-1A    2.358524   19022.8   525.7  234.77183   0.07596   0.01183  -0.79955
  0-1A  ->  8-3A    2.428527   19587.4   510.5    0.00000  -0.00000   0.00000  -0.00000
  0-1A  ->  9-1A    2.456478   19812.8   504.7   -4.62656  -0.03036   0.04763  -0.19866
  0-1A  -> 10-3A    2.529387   20400.9   490.2    0.00000   0.00000  -0.00000  -0.00000
  0-1A  -> 11-3A    2.549978   20567.0   486.2    0.00000   0.00000   0.00000   0.00000
  0-1A  -> 12-3A    2.633862   21243.5   470.7    0.00000  -0.00000   0.00000  -0.00000
  0-1A  -> 13-3A    2.651732   21387.7   467.6    0.00000   0.00000   0.00000  -0.00000
  0-1A  -> 14-3A    2.662931   21478.0   465.6   -0.00000   0.00000  -0.00000   0.00000
  0-1A  -> 15-1A    2.705979   21825.2   458.2  -14.02308  -0.07851   0.07352  -0.00227
  0-1A  -> 16-1A    2.761490   22272.9   449.0  -13.95836  -0.02076   0.04964  -0.19951
  0-1A  -> 17-3A    2.802590   22604.4   442.4    0.00000  -0.00000  -0.00000   0.00000
  0-1A  -> 18-1A    2.824388   22780.2   439.0  -11.69351   0.08864   0.01986   0.17169
  0-1A  -> 19-3A    2.848596   22975.5   435.2    0.00000  -0.00000  -0.00000   0.00000
  0-1A  -> 20-3A    2.904105   23423.2   426.9    0.00000   0.00000   0.00000  -0.00000
  0-1A  -> 21-1A    2.905878   23437.5   426.7   45.25531   0.01879   0.05874  -0.61939
  0-1A  -> 22-3A    2.937425   23691.9   422.1   -0.00000  -0.00000  -0.00000   0.00000
  0-1A  -> 23-1A    2.960511   23878.1   418.8  298.18115   0.08547   0.10874  -1.37085
  0-1A  -> 24-3A    2.994868   24155.2   414.0    0.00000  -0.00000   0.00000   0.00000
  0-1A  -> 25-1A    3.025477   24402.1   409.8   90.35467  -0.09675   0.00286   0.57106
  0-1A  -> 26-3A    3.038906   24510.4   408.0    0.00000  -0.00000  -0.00000   0.00000
  0-1A  -> 27-3A    3.047874   24582.8   406.8   -0.00000   0.00000  -0.00000  -0.00000
  0-1A  -> 28-3A    3.082128   24859.0   402.3   -0.00000   0.00000   0.00000   0.00000
  0-1A  -> 29-1A    3.089807   24921.0   401.3   95.68478   0.13242  -0.23760   0.01985
  0-1A  -> 30-1A    3.137606   25306.5   395.2    0.07536  -0.00441   0.00600   0.00711
  0-1A  -> 31-3A    3.143286   25352.3   394.4    0.00000   0.00000  -0.00000  -0.00000
  0-1A  -> 32-1A    3.172883   25591.0   390.8  -85.97316  -0.06561   0.10841  -0.47046
  0-1A  -> 33-3A    3.180227   25650.3   389.9   -0.00000  -0.00000  -0.00000  -0.00000
  0-1A  -> 34-3A    3.199088   25802.4   387.6   -0.00000  -0.00000  -0.00000  -0.00000
  0-1A  -> 35-3A    3.215794   25937.1   385.5    0.00000   0.00000   0.00000  -0.00000
  0-1A  -> 36-1A    3.224397   26006.5   384.5    1.55013   0.03063  -0.04589   0.09356
  0-1A  -> 37-1A    3.225189   26012.9   384.4  -26.45961  -0.11761   0.02277  -0.16653
  0-1A  -> 38-1A    3.290473   26539.5   376.8  -11.04572   0.00638   0.10442  -0.09680
  0-1A  -> 39-1A    3.302665   26637.8   375.4   25.35016   0.08214   0.02876  -0.42478
  0-1A  -> 40-1A    3.310490   26700.9   374.5  -23.60902  -0.02906   0.03306   0.11217
  0-1A  -> 41-1A    3.322672   26799.2   373.1   21.24438   0.09049   0.04206  -0.03698
  0-1A  -> 42-3A    3.322679   26799.2   373.1    0.00000   0.00000   0.00000  -0.00000
  0-1A  -> 43-3A    3.337522   26918.9   371.5    0.00000   0.00000   0.00000   0.00000
  0-1A  -> 44-3A    3.417496   27564.0   362.8   -0.00000   0.00000   0.00000  -0.00000
  0-1A  -> 45-1A    3.428440   27652.2   361.6   31.75175   0.04724   0.04186  -0.50377
  0-1A  -> 46-3A    3.455892   27873.7   358.8    0.00000  -0.00000  -0.00000   0.00000
  0-1A  -> 47-1A    3.473091   28012.4   357.0   -7.28785  -0.04243  -0.12471   0.57359
  0-1A  -> 48-3A    3.477320   28046.5   356.6   -0.00000   0.00000  -0.00000   0.00000
  0-1A  -> 49-3A    3.487725   28130.4   355.5    0.00000  -0.00000   0.00000   0.00000
  0-1A  -> 50-1A    3.488385   28135.7   355.4   28.01354  -0.16725   0.09607   0.26374

Total run time:      448.478 sec

           *** ORCA-CIS/TD-DFT FINISHED WITHOUT ERROR ***
-----------------------
CIS/TD-DFT TOTAL ENERGY
-----------------------

    E(SCF)  =  -8793.879012660 Eh
    DE(CIS) =     -0.049376696 Eh (Root  1)
    ----------------------------- ---------
    E(tot)  =  -8793.928389355 Eh


Maximum memory used throughout the entire CIS-calculation: 14945.1 MB
=> NOW LEAVING ORCA_CIS


-------------------------------------------------------------------------------
                          DFT DISPERSION CORRECTION                            
                                                                               
                                DFTD4 V3.4.0                                   
-------------------------------------------------------------------------------
The CAM-B3LYP functional is recognized
Active option DFTDOPT                   ...         5   

-------------------------   ----------------
Dispersion correction           -0.225260927
-------------------------   ----------------


-------------------------   --------------------
FINAL SINGLE POINT ENERGY     -8794.153650282084
-------------------------   --------------------



           ************************************************************
           *        Program running with 24 parallel MPI-processes    *
           *              working on a common directory               *
           ************************************************************

------------------------------------------------------------------------------
                              ORCA PROPERTY CALCULATIONS
------------------------------------------------------------------------------

GBWName                                 ... THDBA-PyBTM.gbw
Number of atoms                         ...    101
Number of basis functions               ...   1227
Max core memory                         ...  20000 MB

Electric properties:
Dipole moment                           ... YES
Quadrupole moment                       ...  NO
Static polarizability (Dipole/Dipole)   ...  NO
Static polarizability (Dipole/Quad.)    ...  NO
Static polarizability (Quad./Quad.)     ...  NO
Static polarizability (Velocity)        ...  NO
Static hyperpolarizability              ...  NO

Atomic electric properties:
Dipole moment                           ...  NO
Quadrupole moment                       ...  NO
Static polarizability                   ...  NO

Choice of electric origin               ... Center of mass
Position of electric origin             ...    -0.196104     0.072981     0.006237

General magnetic properties:
Magnetizability                         ...  NO

EPR properties:
g-Tensor (aka g-matrix)                 ...  NO
Zero-Field splitting spin-orbit         ...  NO
Zero-field splitting spin-spin          ...  NO
Hyperfine couplings                     ...  NO (   0 nuclei)
Quadrupole couplings                    ...  NO (   0 nuclei)
Contact density                         ...  NO (   0 nuclei)

NMR properties:
Chemical shifts                         ...  NO (   0 nuclei)
Spin-rotation constants                 ...  NO (   0 nuclei)
Spin-spin couplings                     ...  NO (   0 nuclei,    0 pairs)

Choice of magnetic origin               ... GIAO
Position of magnetic origin             ...     0.000000     0.000000     0.000000

Properties with geometric perturbations:
SCF Hessian                             ...  NO
IR spectrum                             ...  NO
VCD spectrum                            ...  NO
X-ray spectroscopy properties:
SCF XES/XAS/RIXS spectra                ...  NO

SCF SOC stabilization energy            ...  NO
Diagonal Born-Oppenheimer correction    ...  NO

-------------
DIPOLE MOMENT
-------------

Method             : SCF
Type of density    : Electron Density
Multiplicity       :   1
Irrep              :   0
Energy             : -8793.8790126596995833 Eh
Basis              : AO
                                X                 Y                 Z
Electronic contribution:   -120.684541487      45.824688968       3.653878899
Nuclear contribution   :    123.153072853     -45.831792280      -3.916654782
                        -----------------------------------------
Total Dipole Moment    :      2.468531366      -0.007103311      -0.262775883
                        -----------------------------------------
Magnitude (a.u.)       :      2.482488414
Magnitude (Debye)      :      6.309984087



--------------------
Rotational spectrum 
--------------------
 
Rotational constants in cm-1:             0.000718             0.000657             0.000405 
Rotational constants in MHz :            21.535452            19.684566            12.135456 

Dipole components along the rotational axes: 
x,y,z [a.u.] :     2.444730    -0.345463    -0.258262 
x,y,z [Debye]:     6.214010    -0.878096    -0.656450 

 

Dipole moment calculation done in   0.0 sec 

Maximum memory used throughout the entire PROP-calculation: 134.9 MB

--------------------------------
SUGGESTED CITATIONS FOR THIS RUN
--------------------------------

Below you find a list of papers that are relevant to this ORCA run
We neither can nor want to force you to cite these papers, but we appreciate if you do
You receive ORCA, which is the product of decades of hard work by many enthusiastic individuals, for free
The only thing we kindly ask in return is that you cite our papers,
We deeply appreciate it, if you show your appreciation for ORCA by not just citing the generic ORCA reference.

Please note that relegating all ORCA citations to the supporting information does *not* help us.
SI sections are not indexed - citations you put there will not count into any citation statistics
But we need these citations in order to attract the funding resources that allow us to do what we are doing

Therefore, if you are a happy ORCA user, please consider citing a few of the papers listed below in the main body of your paper

In addition to the list printed below, the program has created the file THDBA-PyBTM.bibtex that contains the list in bibtex format
You can import this file easily into all common literature databanks and citation aid programs

It goes without saying that in many instances, there are alternative algorithms to achieve similar
results as the ones you have gotten from ORCA. It is, of course, also the case that in some instances
ORCA just re-implements algorithms worked out by others. We are fully aware of that and we are also
fully appreciative of our colleagues work. Hence this citation list should not be read as indicating
that the listed papers, which are focused on our own work, are the only ones worth citing. It simply
meant to make it easier for users to cite ORCA specific papers. It is not a substitute for doing your
own literature research and citing the relevant literature in a scientifically appropriate manner.

List of essential papers. We consider these as the minimum necessary citations

  1. Neese, F.
     Software update: the ORCA program system, version 6.0
     WIRES Comput. Molec. Sci. 2025 15(1), e70019
     doi.org/10.1002/wcms.70019

List of papers to cite with high priority. The work reported in these papers was absolutely
necessary for this run to complete.
Our perspective: the developers of density functionals and basis sets usually get cited in chemistry papers
Good! But without the algorithms to do something with them, the functionals or basis sets would not do anything.
Hence, in our opinion, the algorithm design and method developments papers are equally worthy of getting cited

  1. Neese, F.; Olbrich, G.
     Efficient use of the resolution of the identity approximation in time-dependent density functional calculations with hybrid density functionals
     Chem. Phys. Lett. 2002 362 , 170-178
     doi.org/10.1016/s0009-2614(02)01053-9
  2. Neese, F.
     An improvement of the resolution of the identity approximation for the formation of the Coulomb matrix
     J. Comp. Chem. 2003 24(14), 1740-1747
     doi.org/10.1002/jcc.10318
  3. Neese, F.
     Definition of corresponding orbitals and the diradical character in broken symmetry DFT calculations on spin coupled systems
     J. Phys. Chem. Solids 2004 65(4), 781-785
     doi.org/10.1016/j.jpcs.2003.11.015
  4. Neese, F.; Wennmohs, F.; Hansen, A.; Becker, U.
     Efficient, approximate and parallel Hartree-Fock and hybrid DFT calculations. A 'chain-of-spheres' algorithm for the Hartree-Fock exchange
     Chem. Phys. 2009 356(1-3), 98-109
     doi.org/10.1016/j.chemphys.2008.10.036
  5. Caldeweyher, E.; Bannwarth, C.; Grimme, S.
     Extension of the D3 dispersion coefficient model
     J. Chem. Phys. 2017 147 , 034112
     doi.org/10.1063/1.4993215
  6. Caldeweyher, E.; Ehlert, S.; Hansen, A.; Neugebauer, H.; Spicher, S.; Bannwarth, C.; Grimme, S.
     A generally applicable atomic-charge dependent London dispersion correction
     J. Chem. Phys. 2019 150 , 154122
     doi.org/10.1063/1.5090222
  7. Helmich-Paris, B.; de Souza, B.; Neese, F.; Izsák, R.
     An improved chain of spheres for exchange algorithm
     J. Chem. Phys. 2021 155(10), 104109
     doi.org/10.1063/5.0058766
  8. Neese, F.
     The SHARK Integral Generation and Digestion System
     J. Comp. Chem. 2022 44(3), 381
     doi.org/10.1002/jcc.26942

List of suggested additional citations. These are papers that are important in the 'surrounding' of 
of this run, or papers that preceded the highly important papers. If you like your results we are grateful for a citation.

  1. Izsak, R.; Neese, F.
     An overlap fitted chain of spheres exchange method
     J. Chem. Phys. 2011 135 , 144105
     doi.org/10.1063/1.3646921
  2. Izsak, R.; Hansen, A.; Neese, F.
     The resolution of identity and chain of spheres approximations for the LPNO-CCSD singles Fock term
     Molec. Phys. 2012 110 , 2413-2417
     doi.org/10.1080/00268976.2012.687466
  3. Neese, F.
     The ORCA program system
     WIRES Comput. Molec. Sci. 2012 2(1), 73-78
     doi.org/10.1002/wcms.81
  4. Izsak, R.; Neese, F.; Klopper, W.
     Robust fitting techniques in the chain of spheres approximation to the Fock exchange: The role of the complementary space
     J. Chem. Phys. 2013 139 , 
     doi.org/10.1063/1.4819264
  5. Neese, F.
     Software update: the ORCA program system, version 4.0
     WIRES Comput. Molec. Sci. 2018 8(1), 1-6
     doi.org/10.1002/wcms.1327
  6. Neese, F.; Wennmohs, F.; Becker, U.; Riplinger, C.
     The ORCA quantum chemistry program package
     J. Chem. Phys. 2020 152(22), 224108
     doi.org/10.1063/5.0004608
  7. Neese, F.
     Software update: The ORCA program system—Version 5.0
     WIRES Comput. Molec. Sci. 2022 12(1), e1606
     doi.org/10.1002/wcms.1606

List of optional additional citations

  1. Neese, F.
     Approximate second-order SCF convergence for spin unrestricted wavefunctions
     Chem. Phys. Lett. 2000 325(1-3), 93-98
     doi.org/10.1016/s0009-2614(00)00662-x

Timings for individual modules:

Sum of individual times          ...      695.351 sec (=  11.589 min)
Startup calculation              ...       15.243 sec (=   0.254 min)   2.2 %
SCF iterations                   ...      221.985 sec (=   3.700 min)  31.9 %
Property integrals               ...        3.220 sec (=   0.054 min)   0.5 %
Property calculations            ...        3.118 sec (=   0.052 min)   0.4 %
CIS module                       ...      451.784 sec (=   7.530 min)  65.0 %
                             ****ORCA TERMINATED NORMALLY****
TOTAL RUN TIME: 0 days 0 hours 11 minutes 43 seconds 401 msec
