
                                 *****************
                                 * O   R   C   A *
                                 *****************

                                            #,                                       
                                            ###                                      
                                            ####                                     
                                            #####                                    
                                            ######                                   
                                           ########,                                 
                                     ,,################,,,,,                         
                               ,,#################################,,                 
                          ,,##########################################,,             
                       ,#########################################, ''#####,          
                    ,#############################################,,   '####,        
                  ,##################################################,,,,####,       
                ,###########''''           ''''###############################       
              ,#####''   ,,,,##########,,,,          '''####'''          '####       
            ,##' ,,,,###########################,,,                        '##       
           ' ,,###''''                  '''############,,,                           
         ,,##''                                '''############,,,,        ,,,,,,###''
      ,#''                                            '''#######################'''  
     '                                                          ''''####''''         
             ,#######,   #######,   ,#######,      ##                                
            ,#'     '#,  ##    ##  ,#'     '#,    #''#        ,####,    ,#,          
            ##       ##  ##   ,#'  ##            #'  '#       #'       ,# #          
            ##       ##  #######   ##           ,######,      #####,      #          
            '#,     ,#'  ##    ##  '#,     ,#' ,#      #,     #,   #      #          
             '#######'   ##     ##  '#######'  #'      '#     '####' #    #          



                #########################################################
                #                        -***-                          #
                #          Department of theory and spectroscopy        #
                #                                                       #
                #                      Frank Neese                      #
                #                                                       #
                #     Directorship, Architecture, Infrastructure        #
                #                    SHARK, DRIVERS                     #
                #        Core code/Algorithms in most modules           #
                #                                                       #
                #        Max Planck Institute fuer Kohlenforschung      #
                #                Kaiser Wilhelm Platz 1                 #
                #                 D-45470 Muelheim/Ruhr                 #
                #                      Germany                          #
                #                                                       #
                #                  All rights reserved                  #
                #                        -***-                          #
                #########################################################


                         Program Version 6.1.1  -  RELEASE   -
                                (GIT: $487d211c$)
                          ($2025-11-21 10:33:24 +0100$)


 With contributions from (in alphabetic order):
[Max-Planck-Institut fuer Kohlenforschung]                               
  Daniel Aravena         : Magnetic Suceptibility                        
  Michael Atanasov       : Ab Initio Ligand Field Theory (pilot matlab implementation)
  Alexander A. Auer      : GIAO ZORA, VPT2 properties, NMR spectrum      
  Ute Becker             : All parallelization in ORCA, NUMFREQ, NUMCALC 
  Giovanni Bistoni       : ED, misc. LED, open-shell LED, HFLD           
  Dmytro Bykov           : pre 5.0 version of the SCF Hessian            
  Marcos Casanova-Páez   : Triplet and SCS-CIS(D). UHF-(DLPNO)-IP/EA/STEOM-CCSD. UHF-CVS-IP/STEOM-CCSD   
  Vijay G. Chilkuri      : MRCI spin determinant printing, contributions to CSF-ICE 
  Pauline Colinet        : FMM embedding                                 
  Dipayan Datta          : RHF DLPNO-CCSD density                        
  Achintya Kumar Dutta   : EOM-CC, STEOM-CC                              
  Nicolas Foglia         : Exact transition moments, OPA infrastructure, MCD improvements    
  Dmitry Ganyushin       : Spin-Orbit,Spin-Spin,Magnetic field MRCI      
  Miquel Garcia-Rates    : C-PCM and meta-GGA Hessian, CCSD/C-PCM, Gaussian charge scheme 
  Tiago L. C. Gouveia    : GS-ROHF, GS-ROCIS                             
  Yang Guo               : DLPNO-NEVPT2, F12-NEVPT2, CIM, IAO-localization        
  Andreas Hansen         : Spin unrestricted coupled pair/coupled cluster methods 
  Ingolf Harden          : AUTO-CI MPn and infrastructure                
  Benjamin Helmich-Paris : MC-RPA, TRAH-(SCF,CASSCF), AVAS, COSX integrals, SCF dyn. polar., MC-PDFT, srDFT 
  Lee Huntington         : MR-EOM, pCC                                   
  Robert Izsak           : Overlap fitted RIJCOSX, COSX-SCS-MP3, EOM     
  Riya Kayal             : Wick's Theorem for AUTO-CI, AUTO-CI UHF-CCSDT 
  Emily Kempfer          : AUTO-CI RHF CISDT and CCSDT, approximate NEVPT4
  Christian Kollmar      : KDIIS, OOCD, Brueckner-CCSD(T), CCSD density, CASPT2, CASPT2-K, improved NEVPT2 
  Axel Koslowski         : Symmetry handling                             
  Simone Kossmann        : meta-GGA functionals, TD-DFT gradient, OOMP2, (MP2 Hessian; deprecated post 5.0) 
  Lucas Lang             : DCDCAS, Hyperfine gauge corrections, ICE-SOC+SSC
  Marvin Lechner         : AUTO-CI (C++ implementation), FIC-MRCC        
  Spencer Leger          : CASSCF response                               
  Dagmar Lenk            : GEPOL surface, SMD, ORCA-2-JSON               
  Dimitrios Liakos       : Extrapolation schemes; Compound Job, Property file
  Dimitrios Manganas     : Further ROCIS development; embedding schemes. LFT, Crystal Embedding 
  Dimitrios Pantazis     : SARC Basis sets                               
  Anastasios Papadopoulos: AUTO-CI, single reference methods and gradients 
  Taras Petrenko         : pre 6.0 DFT Hessian and TD-DFT gradient,  ECA, NRVS 
  Petra Pikulova         : Analytic Raman intensities                    
  Peter Pinski           : DLPNO-MP2, DLPNO-MP2 Gradient                 
  Shashank Vittal Rao    : ES-AILFT, MagRelax                            
  Christoph Reimann      : Effective Core Potentials                     
  Marius Retegan         : Local ZFS, SOC                                
  Christoph Riplinger    : Optimizer, TS searches, QM/MM, DLPNO-CCSD(T), (RO)-DLPNO pert. Triples 
  Michael Roemelt        : Original ROCIS implementation, recursive CI coupling coefficients
  Masaaki Saitow         : Open-shell DLPNO-CCSD energy and density      
  Barbara Sandhoefer     : DKH picture change effects                    
  Yorick L. A. Schmerwitz: GMF and freeze-and-release deltaSCF, NEB S-IDPP initial path                    
  Kantharuban Sivalingam : CASSCF convergence/infrastructure, NEVPT2, NEVPT3, NEVPT4(SD), FIC-MRCI and CEPA variants
  Bernardo de Souza      : ESD, SOC TD-DFT                               
  Georgi L. Stoychev     : AutoAux, RI-MP2 NMR, DLPNO-MP2 response, X2C  
  Van Anh Tran           : RI-MP2 g-tensors                              
  Willem Van den Heuvel  : Paramagnetic NMR                              
  Zikuan Wang            : NOTCH, Electric field optimization            
  Frank Wennmohs         : Technical directorship and infrastructure     
  Hang Xu                : AUTO-CI-Response properties                   
                                                                         
[FACCTs GmbH]                                                            
  Markus Bursch, Nicolas Foglia, Miquel Garcia-Rates, Ingolf Harden, Hagen Neugebauer, Anastasios Papadopoulos, 
  Christoph Riplinger, Bernardo de Souza, Georgi L. Stoychev                                                    
                                                                 
  APM, various basis sets, CI-OPT, improved COSX, DLPNO-Multilevel,           
  DOCKER, DRACO, updates on ESD, Fragmentator, GOAT, IRC, LR-CPCM, L-BFGS, MBIS, meta-GGA TD-DFT gradient, ML-optimized integration grids, 
  MM, NACMEs, nearIR, NEB, NEB-TS, NL-DFT gradient (VV10), 2- and 3-layer-ONIOM, interface openCOSMO-RS, QMMM,   
  Crystal-QMMM, RESP, rigid body optimization, SF, symmetry and pop. for TD-DFT, various functionals, SOLVATOR                                   
                                                                         
[Other institutions]                                                     
  V. Asgeirsson          : NEB                                           
  Christoph Bannwarth    : sTDA-DFT, sTD-DFT, PBEh-3c, B97-3c, D3        
  Giovanni Bistoni       : ETS/NOCV, ADLD/ADEX, COVALED                  
  Martin Brehm           : Molecular dynamics                            
  Ronald Cardenas        : ETS/NOCV                                      
  Martina Colucci        : COVALED                                       
  Sebastian Ehlert       : rSCAN, r2SCAN, r2SCAN-3c, D4, dhf basis sets  
  Marvin Friede          : D4 for Fr, Ra, Ac-Lr                          
  Lars Goerigk           : TD-DFT with DH, B97 family of functionals     
  Stefan Grimme          : VdW corrections, initial TS optimization, DFT functionals, gCP, sTDA/sTD-DF 
  Waldemar Hujo          : DFT-NL                                        
  H. Jonsson             : NEB                                           
  Holger Kruse           : gCP                                           
  Marcel Mueller         : wB97X-3c, vDZP basis set                      
  Hagen Neugebauer       : wr2SCAN, Native XTB                           
  Gianluca Regni         : ADLD/ADEX                                     
  Tobias Risthaus        : pre 6.0 range-separated hybrid DFT and stability analysis
  Lukas Wittmann         : regularized MP2, r2SCAN double-hybrids, wr2SCAN        
                                                                         
We gratefully acknowledge several colleagues who have allowed us to      
interface, adapt or use parts of their codes:                            
  Ed Valeev, F. Pavosevic, A. Kumar             : LibInt (2-el integral package), F12 methods 
  Garnet Chan, S. Sharma, J. Yang, R. Olivares  : DMRG                   
  Ulf Ekstrom                                   : XCFun DFT Library      
  Mihaly Kallay                                 : mrcc  (arbitrary order and MRCC methods)
  Frank Weinhold                                : gennbo (NPA and NBO analysis)           
  Simon Mueller                                 : openCOSMO-RS                            
  Christopher J. Cramer and Donald G. Truhlar   : smd solvation model                     
  S Lehtola, MJT Oliveira, MAL Marques          : LibXC Library                           
  Liviu Ungur et al                             : ANISO software                          


 Your calculation uses the libint2 library for the computation of 2-el integrals
 For citations please refer to: http://libint.valeyev.net

 Your ORCA version has been built with support for libXC version: 7.0.0
 For citations please refer to: https://libxc.gitlab.io

 This ORCA versions uses:
   CBLAS   interface :  Fast vector & matrix operations
   LAPACKE interface :  Fast linear algebra routines
   SCALAPACK package :  Parallel linear algebra routines
   Shared memory     :  Shared parallel matrices
   BLAS/LAPACK       :  OpenBLAS 0.3.29  USE64BITINT DYNAMIC_ARCH NO_AFFINITY Cooperlake SINGLE_THREADED
        Core in use  :  Cooperlake
   Copyright (c) 2011-2014, The OpenBLAS Project


  ***********************************
  * Starting time: Sat May  9 01:10:08 2026
  * Host name:     cs-n0040
  * Process ID:    875668
  * Working dir.:  /mnt/lustre/e1000/home/ec293/ec293/iitprince/joey_project/cam/NEW
  ***********************************

NOTE: MaxCore=20000 MB was set to SCF,MP2,MDCI,CIPSI,MRCI,RASCI and CIS
      => If you want to overwrite this, your respective input block should be placed after the MaxCore statement


***************************************
The coordinates will be read from file: TPA-OMe.xyz
***************************************


Your calculation utilizes the atom-pairwise dispersion correction
based on EEQ partial charges (D4)


XCFun DFT library Copyright 2009-2010 Ulf Ekstrom and contributors.
See http://admol.org/xcfun for more information.
This is free software; see the source code for copying conditions.
There is ABSOLUTELY NO WARRANTY; not even for MERCHANTABILITY or FITNESS FOR A PARTICULAR PURPOSE.
For details see the documentation.
Scientific users of this library should cite U. Ekstrom, L. Visscher, R. Bast, A. J. Thorvaldsen and K. Ruud;
J.Chem.Theor.Comp. 2010, DOI: 10.1021/ct100117s
XCFun Version 0.99 

Warning: RI is on but no J-basis has been assigned. Assigning Def2/J (nothing to worry about!)
================================================================================

----- Orbital basis set information -----
Your calculation utilizes the basis: 6-31G(d,p)
   H-He, Li-Ne : W. J. Hehre, R. Ditchfield and J.A. Pople, J. Chem. Phys. 56, 2257 (1972).
                 Note: He and Ne are unpublished basis sets taken from the Gaussian program.
                 Note: Li and B from J. D. Dill and J. A. Pople, J. Chem. Phys. 62, 2921 (1975).
   Na - Ar     : M. M. Francl, W. J. Pietro, W. J. Hehre, J. S. Binkley, M. S. Gordon, 
                 D. J. DeFrees and J. A. Pople, J. Chem. Phys. 77, 3654 (1982).
   K - Zn      : V. A. Rassolov, J. A. Pople, M. A. Ratner, and T. L. Windus, J. Chem. Phys. 109, 1223 (1998).

----- AuxJ basis set information -----
Your calculation utilizes the auxiliary basis: def2/J
   H-Rn: F. Weigend, Phys. Chem. Chem. Phys. 8, 1057 (2006).
   Fr-Lr: K. Eichkorn, F. Weigend, O. Treutler, R. Ahlrichs; Theor. Chem. Acc. 97, 119 (1997).

================================================================================
                                        WARNINGS
                       Please study these warnings very carefully!
================================================================================


WARNING: CIS/ROCIS methods need fully converged wavefunctions
  ===> : Setting SCFConvForced true
         You can overwrite this default with %scf ConvForced false 


================================================================================
                                       INPUT FILE
================================================================================
NAME = TPA-OMe.inp
|  1> ! UKS CAM-B3LYP 6-31G(d,p) RIJCOSX D4 TightSCF
|  2> %PAL NPROCS 24 END
|  3> 
|  4> %tddft
|  5>  Nroots 50
|  6> end
|  7> 
|  8> %scf
|  9>  MaxIter 1500
| 10>  FlipSpin 25
| 11>  FinalMs 0
| 12> end
| 13> 
| 14> %Maxcore 20000
| 15> 
| 16> *xyzfile 0 1 TPA-OMe.xyz
| 17> 
| 18>                          ****END OF INPUT****
================================================================================

                       ****************************
                       * Single Point Calculation *
                       ****************************

---------------------------------
CARTESIAN COORDINATES (ANGSTROEM)
---------------------------------
  C     -2.639085    1.473828    0.571926
  C     -3.721294    1.971757   -0.178702
  C     -3.521211    3.167529   -0.892650
  C     -2.303783    3.832745   -0.864659
  C     -1.227974    3.327356   -0.112035
  C     -1.420959    2.134746    0.610427
  N      0.002562    4.019972   -0.066533
  C      1.235960    3.334533   -0.002076
  C     -0.001115    5.451742   -0.078923
  C      0.759727    6.158124   -1.024788
  C      0.761025    7.545356   -1.034132
  C     -0.013765    8.262409   -0.108380
  C     -0.782356    7.565502    0.832178
  C     -0.762769    6.169465    0.846917
  C      2.312120    3.868479    0.729939
  C      3.532412    3.209149    0.775784
  C      3.734821    1.991350    0.101184
  C      2.652622    1.465769   -0.630606
  C      1.431936    2.120217   -0.686934
  C     -5.003177    1.243355   -0.188599
  N     -5.069820    0.117517    0.553355
  C     -6.172833   -0.584916    0.583969
  C     -7.378516   -0.295735   -0.122025
  C     -7.281034    0.897065   -0.882230
  C     -6.125392    1.661606   -0.917083
  C     -8.580592   -1.130140   -0.061807
  C     -9.900458   -0.505838    0.153093
  C     -8.478136   -2.593164   -0.220352
  C     -9.094181   -3.507161    0.672766
  C     -9.011124   -4.888255    0.529027
  C     -8.286367   -5.411991   -0.536194
  C     -7.654043   -4.574417   -1.448983
  C     -7.758699   -3.197398   -1.283719
  C    -10.143997    0.424114    1.197024
  C    -11.381785    1.020757    1.413852
  C    -12.442950    0.694034    0.576170
  C    -12.276419   -0.212132   -0.465556
  C    -11.026032   -0.789309   -0.662476
  Cl    -8.596401    1.434134   -1.907222
  Cl    -7.012164   -2.226783   -2.540654
  Cl    -9.941797   -2.944791    2.101596
  Cl    -6.111042   -1.958752    1.689636
  Cl    -8.896839    0.823235    2.364411
  Cl   -10.888872   -1.839352   -2.060679
  Cl    -8.169069   -7.146626   -0.731106
  Cl   -14.007677    1.432918    0.835975
  C      5.018842    1.267248    0.131867
  N      5.093321    0.128901   -0.589928
  C      6.198514   -0.570646   -0.601670
  C      7.399005   -0.265607    0.106446
  C      7.292804    0.939038    0.846603
  C      6.134712    1.700533    0.861283
  C      8.604388   -1.096412    0.066844
  C      9.923337   -0.470909   -0.149847
  C      8.506233   -2.557152    0.247921
  C      9.131030   -3.482785   -0.626961
  C      9.052543   -4.861739   -0.461662
  C      8.323735   -5.371304    0.607640
  C      7.682776   -4.521852    1.503265
  C      7.782891   -3.147236    1.316524
  C     10.169788    0.444323   -1.206089
  C     11.406901    1.041705   -1.424787
  C     12.464411    0.730797   -0.576543
  C     12.294898   -0.160372    0.477565
  C     11.045263   -0.738578    0.676088
  Cl     8.599436    1.496090    1.872129
  Cl     7.024859   -2.159686    2.553286
  Cl     0.984719   -2.939805   -2.059602
  Cl     6.147152   -1.963523   -1.683818
  Cl     8.928096    0.822264   -2.386177
  Cl    10.903868   -1.768135    2.089099
  Cl     8.212185   -7.103137    0.829561
  Cl    14.028245    1.470731   -0.838593
  O      0.050369    9.619941   -0.208771
  C     -0.710742   10.399794    0.701364
  H     -2.779325    0.561989    1.141099
  H     -4.318176    3.592299   -1.494671
  H     -2.175960    4.748072   -1.432317
  H     -0.611474    1.735655    1.212386
  H      1.351295    5.609876   -1.751628
  H      1.345883    8.100096   -1.760925
  H     -1.385995    8.092244    1.562150
  H     -1.350442    5.632384    1.585276
  H      2.183039    4.801650    1.267342
  H      4.330250    3.658000    1.358926
  H      2.794990    0.536848   -1.170876
  H      0.622692    1.698980   -1.273890
  H     -6.107300    2.552436   -1.530703
  H     -9.487612   -5.539893    1.250717
  H     -7.104238   -4.981593   -2.288262
  H    -11.515888    1.711736    2.236712
  H    -13.097536   -0.453429   -1.128866
  H      6.109068    2.600211    1.461545
  H      9.535724   -5.522918   -1.170105
  H      7.129721   -4.917792    2.345790
  H     11.543362    1.720963   -2.256968
  H     13.113047   -0.389126    1.148932
  H     -0.511834   11.440777    0.441292
  H     -1.785793   10.200053    0.602180
  H     -0.404219   10.220623    1.740286

----------------------------
CARTESIAN COORDINATES (A.U.)
----------------------------
  NO LB      ZA    FRAG     MASS         X           Y           Z
   0 C     6.0000    0    12.011   -4.987148    2.785131    1.080784
   1 C     6.0000    0    12.011   -7.032227    3.726081   -0.337698
   2 C     6.0000    0    12.011   -6.654124    5.985762   -1.686864
   3 C     6.0000    0    12.011   -4.353519    7.242838   -1.633969
   4 C     6.0000    0    12.011   -2.320535    6.287792   -0.211715
   5 C     6.0000    0    12.011   -2.685223    4.034085    1.153540
   6 N     7.0000    0    14.007    0.004841    7.596646   -0.125729
   7 C     6.0000    0    12.011    2.335626    6.301354   -0.003923
   8 C     6.0000    0    12.011   -0.002107   10.302299   -0.149143
   9 C     6.0000    0    12.011    1.435676   11.637168   -1.936569
  10 C     6.0000    0    12.011    1.438129   14.258656   -1.954226
  11 C     6.0000    0    12.011   -0.026012   15.613690   -0.204809
  12 C     6.0000    0    12.011   -1.478439   14.296727    1.572589
  13 C     6.0000    0    12.011   -1.441425   11.658599    1.600441
  14 C     6.0000    0    12.011    4.369274    7.310366    1.379385
  15 C     6.0000    0    12.011    6.675291    6.064413    1.466019
  16 C     6.0000    0    12.011    7.057789    3.763106    0.191210
  17 C     6.0000    0    12.011    5.012729    2.769902   -1.191673
  18 C     6.0000    0    12.011    2.705967    4.006629   -1.298117
  19 C     6.0000    0    12.011   -9.454634    2.349600   -0.356400
  20 N     7.0000    0    14.007   -9.580571    0.222075    1.045689
  21 C     6.0000    0    12.011  -11.664964   -1.105331    1.103541
  22 C     6.0000    0    12.011  -13.943375   -0.558858   -0.230594
  23 C     6.0000    0    12.011  -13.759160    1.695207   -1.667173
  24 C     6.0000    0    12.011  -11.575313    3.139980   -1.733036
  25 C     6.0000    0    12.011  -16.214969   -2.135655   -0.116798
  26 C     6.0000    0    12.011  -18.709154   -0.955895    0.289304
  27 C     6.0000    0    12.011  -16.021355   -4.900370   -0.416405
  28 C     6.0000    0    12.011  -17.185512   -6.627574    1.271343
  29 C     6.0000    0    12.011  -17.028557   -9.237463    0.999716
  30 C     6.0000    0    12.011  -15.658964  -10.227181   -1.013260
  31 C     6.0000    0    12.011  -14.464045   -8.644395   -2.738181
  32 C     6.0000    0    12.011  -14.661816   -6.042207   -2.425877
  33 C     6.0000    0    12.011  -19.169376    0.801459    2.262048
  34 C     6.0000    0    12.011  -21.508457    1.928951    2.671793
  35 C     6.0000    0    12.011  -23.513768    1.311534    1.088804
  36 C     6.0000    0    12.011  -23.199070   -0.400871   -0.879773
  37 C     6.0000    0    12.011  -20.836181   -1.491578   -1.251898
  38 Cl   17.0000    0    35.453  -16.244844    2.710120   -3.604127
  39 Cl   17.0000    0    35.453  -13.251070   -4.208010   -4.801140
  40 Cl   17.0000    0    35.453  -18.787274   -5.564849    3.971441
  41 Cl   17.0000    0    35.453  -11.548196   -3.701505    3.192949
  42 Cl   17.0000    0    35.453  -16.812589    1.555689    4.468089
  43 Cl   17.0000    0    35.453  -20.576986   -3.475872   -3.894119
  44 Cl   17.0000    0    35.453  -15.437303  -13.505166   -1.381590
  45 Cl   17.0000    0    35.453  -26.470673    2.707823    1.579764
  46 C     6.0000    0    12.011    9.484237    2.394752    0.249193
  47 N     7.0000    0    14.007    9.624982    0.243588   -1.114802
  48 C     6.0000    0    12.011   11.713494   -1.078365   -1.136992
  49 C     6.0000    0    12.011   13.982093   -0.501924    0.201154
  50 C     6.0000    0    12.011   13.781402    1.774525    1.599848
  51 C     6.0000    0    12.011   11.592926    3.213542    1.627589
  52 C     6.0000    0    12.011   16.259937   -2.071918    0.126317
  53 C     6.0000    0    12.011   18.752389   -0.889889   -0.283170
  54 C     6.0000    0    12.011   16.074451   -4.832317    0.468503
  55 C     6.0000    0    12.011   17.255146   -6.581510   -1.184785
  56 C     6.0000    0    12.011   17.106827   -9.187355   -0.872415
  57 C     6.0000    0    12.011   15.729580  -10.150294    1.148273
  58 C     6.0000    0    12.011   14.518343   -8.545062    2.840759
  59 C     6.0000    0    12.011   14.707533   -5.947414    2.487870
  60 C     6.0000    0    12.011   19.218114    0.839649   -2.279178
  61 C     6.0000    0    12.011   21.555919    1.968537   -2.692457
  62 C     6.0000    0    12.011   23.554323    1.381006   -1.089508
  63 C     6.0000    0    12.011   23.233990   -0.303059    0.902467
  64 C     6.0000    0    12.011   20.872522   -1.395710    1.277621
  65 Cl   17.0000    0    35.453   16.250579    2.827200    3.537811
  66 Cl   17.0000    0    35.453   13.275060   -4.081215    4.825011
  67 Cl   17.0000    0    35.453    1.860849   -5.555426   -3.892084
  68 Cl   17.0000    0    35.453   11.616434   -3.710521   -3.181955
  69 Cl   17.0000    0    35.453   16.871656    1.553854   -4.509221
  70 Cl   17.0000    0    35.453   20.605324   -3.341291    3.947825
  71 Cl   17.0000    0    35.453   15.518781  -13.422984    1.567643
  72 Cl   17.0000    0    35.453   26.509541    2.779279   -1.584711
  73 O     8.0000    0    15.999    0.095184   18.179054   -0.394520
  74 C     6.0000    0    12.011   -1.343108   19.652763    1.325386
  75 H     1.0000    0     1.008   -5.252163    1.062005    2.156365
  76 H     1.0000    0     1.008   -8.160170    6.788461   -2.824519
  77 H     1.0000    0     1.008   -4.111968    8.972556   -2.706687
  78 H     1.0000    0     1.008   -1.155518    3.279913    2.291078
  79 H     1.0000    0     1.008    2.553577   10.601129   -3.310097
  80 H     1.0000    0     1.008    2.543350   15.306963   -3.327666
  81 H     1.0000    0     1.008   -2.619151   15.292125    2.952036
  82 H     1.0000    0     1.008   -2.551966   10.643663    2.995737
  83 H     1.0000    0     1.008    4.125346    9.073803    2.394929
  84 H     1.0000    0     1.008    8.182987    6.912618    2.567998
  85 H     1.0000    0     1.008    5.281766    1.014496   -2.212635
  86 H     1.0000    0     1.008    1.176717    3.210607   -2.407303
  87 H     1.0000    0     1.008  -11.541124    4.823405   -2.892609
  88 H     1.0000    0     1.008  -17.928988  -10.468881    2.363513
  89 H     1.0000    0     1.008  -13.425064   -9.413846   -4.324189
  90 H     1.0000    0     1.008  -21.761875    3.234712    4.226773
  91 H     1.0000    0     1.008  -24.750756   -0.856857   -2.133248
  92 H     1.0000    0     1.008   11.544465    4.913687    2.761920
  93 H     1.0000    0     1.008   18.019907  -10.436802   -2.211178
  94 H     1.0000    0     1.008   13.473220   -9.293280    4.432901
  95 H     1.0000    0     1.008   21.813793    3.252149   -4.265051
  96 H     1.0000    0     1.008   24.780068   -0.735342    2.171167
  97 H     1.0000    0     1.008   -0.967226   21.619935    0.833921
  98 H     1.0000    0     1.008   -3.374660   19.275307    1.137955
  99 H     1.0000    0     1.008   -0.763863   19.314178    3.288664

--------------------------------
INTERNAL COORDINATES (ANGSTROEM)
--------------------------------
 C      0   0   0     0.000000000000     0.00000000     0.00000000
 C      1   0   0     1.408031250756     0.00000000     0.00000000
 C      2   1   0     1.406991694921   117.50073454     0.00000000
 C      3   2   1     1.387597476908   121.46404999     0.19441631
 C      4   3   2     1.406849647680   120.62978026   359.81738583
 C      1   2   3     1.386407545277   121.43477221     0.08946746
 N      5   4   3     1.412800836196   120.47473319   181.14407408
 C      7   5   4     1.412533877107   121.60829452   215.08346475
 C      7   5   4     1.431828329559   119.19003217    35.41932532
 C      9   7   5     1.404463127716   120.48888629   233.33000114
 C     10   9   7     1.387264076146   120.52981259   180.26134788
 C     11  10   9     1.404094482011   120.37903461   359.12490303
 C     12  11  10     1.400378821353   119.44196283     0.43035718
 C     13  12  11     1.396252195722   119.79973686     0.49439791
 C      8   7   5     1.406792321823   120.49929618   214.72531696
 C     15   8   7     1.387778937075   120.63178124   181.14121523
 C     16  15   8     1.406800969463   121.46261037   359.80414814
 C     17  16  15     1.408157188407   117.49830975     0.28996299
 C     18  17  16     1.386199602829   121.44389054     0.00000000
 C      2   1   3     1.474412238793   119.80873594   180.22695978
 N     20   2   1     1.349980825719   116.82285659     0.63294788
 C     21  20   2     1.308047023105   120.15481334   180.49757827
 C     22  21  20     1.426788237716   126.31000512     0.67819023
 C     23  22  21     1.417810361913   112.19275085   358.86532706
 C     24  23  22     1.386090222335   122.33373961     0.44039265
 C     23  22  21     1.464528805222   123.90218540   179.22030866
 C     26  23  22     1.475798514419   119.93649368   133.06004167
 C     26  23  22     1.475151847620   120.24057158   312.82702802
 C     28  26  23     1.418647849171   122.76217618   131.02320113
 C     29  28  26     1.391035586247   123.27697502   179.60992830
 C     30  29  28     1.390779596337   118.95647360     0.27235780
 C     31  30  29     1.390880154784   120.84952718   359.87374771
 C     32  31  30     1.390843770663   118.94802860   359.86114521
 C     27  26  23     1.419124342539   122.53444186   310.10482405
 C     34  27  26     1.391084607052   123.25884093   180.04592113
 C     35  34  27     1.390873901214   118.96298157     0.26763276
 C     36  35  34     1.390705739038   120.85315211   359.88097034
 C     37  36  35     1.391178789911   118.94624545   359.85589782
 Cl    24  23  22     1.751925242559   121.33140096   176.82512252
 Cl    33  32  31     1.754791605483   115.49939662   183.67068200
 Cl    29  28  26     1.753929322765   121.07409301   355.92739386
 Cl    22  21  20     1.764580119311   113.78035253   183.94617041
 Cl    34  27  26     1.754278500516   121.10465547   356.48146854
 Cl    38  37  36     1.753959747730   115.56297355   183.73571409
 Cl    31  30  29     1.749487951308   119.58082713   179.90318535
 Cl    36  35  34     1.749805357178   119.57980066   179.89727461
 C     17  16  15     1.474440599459   122.71374982   180.04187661
 N     47  17  16     1.349951493897   116.81057668   181.87841601
 C     48  47  17     1.308034956346   120.15840212   180.48977989
 C     49  48  47     1.426764066711   126.30843951     0.67876551
 C     50  49  48     1.417843649023   112.19212394   358.94349682
 C     51  50  49     1.386097838498   122.33589619     0.37157491
 C     50  49  48     1.464497676037   123.90582773   179.29433180
 C     53  50  49     1.475749117259   119.94287935   133.09174494
 C     53  50  49     1.475189693414   120.24218478   312.86111738
 C     55  53  50     1.418656496768   122.75705145   131.01631533
 C     56  55  53     1.391042092349   123.27576184   179.58491972
 C     57  56  55     1.390763947366   118.95616110     0.26938181
 C     58  57  56     1.390877881271   120.85145321   359.88087400
 C     59  58  57     1.390850229810   118.94533187   359.86126935
 C     54  53  50     1.419166964028   122.53665365   310.17226810
 C     61  54  53     1.391094045669   123.25663828   180.05439993
 C     62  61  54     1.390866301303   118.96604881     0.27274355
 C     63  62  61     1.390705043995   120.85222246   359.87369780
 C     64  63  62     1.391158220042   118.94640050   359.85932048
 Cl    51  50  49     1.751941120815   121.32322336   176.73093333
 Cl    60  59  58     1.754835536501   115.49748441   183.65689987
 Cl    18  17  16     4.922703754534   138.18287157   208.23532268
 Cl    49  48  47     1.764593065292   113.76966484   183.95134663
 Cl    61  54  53     1.754208114817   121.11152905   356.49379840
 Cl    65  64  63     1.754018314726   115.55219518   183.73908378
 Cl    58  57  56     1.749553620965   119.57869664   179.90606053
 Cl    63  62  61     1.749785502972   119.58162500   179.89223486
 O     12  11  10     1.362748932805   115.73387745   180.47233431
 C     74  12  11     1.419790961429   118.34098130   180.05819122
 H      1   2   3     1.084009005244   118.55139902   179.04771214
 H      3   2   1     1.085362634591   120.64034604   179.47535461
 H      4   3   2     1.084618753859   119.82910219   179.44791976
 H      6   1   2     1.084847560345   119.71202817   178.89467944
 H     10   9   7     1.085737055519   119.47514058     0.16743287
 H     11  10   9     1.085367869717   121.07171141   179.98615947
 H     13  12  11     1.083834072942   121.07616332   179.67690961
 H     14  13  12     1.085812860658   119.61334979   179.25821339
 H     15   8   7     1.084560742518   119.56137564     1.48071177
 H     16  15   8     1.085388081107   117.88088398   180.36701044
 H     18  17  16     1.083999328674   118.54964217   178.96778076
 H     19  18  17     1.084819712045   119.70693016   178.89890784
 H     25  24  23     1.081866402919   118.84141884   178.89722879
 H     30  29  28     1.082824710324   120.15555883   178.96737806
 H     32  31  30     1.082805186930   120.86806297   181.08211038
 H     35  34  27     1.082836170734   120.15470598   178.97202519
 H     37  36  35     1.082791543187   120.88172145   181.10288925
 H     52  51  50     1.081846840853   118.85227755   178.79454242
 H     57  56  55     1.082826409472   120.15730466   178.96605849
 H     59  58  57     1.082814246420   120.86962758   181.08017062
 H     62  61  54     1.082838054303   120.15057516   178.97929588
 H     64  63  62     1.082787988207   120.88025205   181.10917912
 H     75  74  12     1.091259567627   105.87156472   180.05174190
 H     75  74  12     1.097938334124   111.53460381   298.83935849
 H     75  74  12     1.097915078161   111.54853849    61.27007596

---------------------------
INTERNAL COORDINATES (A.U.)
---------------------------
 C      0   0   0     0.000000000000     0.00000000     0.00000000
 C      1   0   0     2.660793451932     0.00000000     0.00000000
 C      2   1   0     2.658828976103   117.50073454     0.00000000
 C      3   2   1     2.622179215476   121.46404999     0.19441631
 C      4   3   2     2.658560545719   120.62978026   359.81738583
 C      1   2   3     2.619930570576   121.43477221     0.08946746
 N      5   4   3     2.669806662185   120.47473319   181.14407408
 C      7   5   4     2.669302182618   121.60829452   215.08346475
 C      7   5   4     2.705763413657   119.19003217    35.41932532
 C      9   7   5     2.654050676573   120.48888629   233.33000114
 C     10   9   7     2.621549179342   120.52981259   180.26134788
 C     11  10   9     2.653354037150   120.37903461   359.12490303
 C     12  11  10     2.646332456101   119.44196283     0.43035718
 C     13  12  11     2.638534263801   119.79973686     0.49439791
 C      8   7   5     2.658452215549   120.49929618   214.72531696
 C     15   8   7     2.622522125496   120.63178124   181.14121523
 C     16  15   8     2.658468557220   121.46261037   359.80414814
 C     17  16  15     2.661031439602   117.49830975     0.28996299
 C     18  17  16     2.619537616298   121.44389054     0.00000000
 C      2   1   3     2.786235339820   119.80873594   180.22695978
 N     20   2   1     2.551094046654   116.82285659     0.63294788
 C     21  20   2     2.471850643960   120.15481334   180.49757827
 C     22  21  20     2.696239020384   126.31000512     0.67819023
 C     23  22  21     2.679273293852   112.19275085   358.86532706
 C     24  23  22     2.619330917120   122.33373961     0.44039265
 C     23  22  21     2.767558357108   123.90218540   179.22030866
 C     26  23  22     2.788855021099   119.93649368   133.06004167
 C     26  23  22     2.787632997950   120.24057158   312.82702802
 C     28  26  23     2.680855915410   122.76217618   131.02320113
 C     29  28  26     2.628676300546   123.27697502   179.60992830
 C     30  29  28     2.628192549722   118.95647360     0.27235780
 C     31  30  29     2.628382577648   120.84952718   359.87374771
 C     32  31  30     2.628313821624   118.94802860   359.86114521
 C     27  26  23     2.681756357379   122.53444186   310.10482405
 C     34  27  26     2.628768936442   123.25884093   180.04592113
 C     35  34  27     2.628370760113   118.96298157     0.26763276
 C     36  35  34     2.628052979654   120.85315211   359.88097034
 C     37  36  35     2.628946916252   118.94624545   359.85589782
 Cl    24  23  22     3.310658915539   121.33140096   176.82512252
 Cl    33  32  31     3.316075556468   115.49939662   183.67068200
 Cl    29  28  26     3.314446078280   121.07409301   355.92739386
 Cl    22  21  20     3.334573166859   113.78035253   183.94617041
 Cl    34  27  26     3.315105928602   121.10465547   356.48146854
 Cl    38  37  36     3.314503573132   115.56297355   183.73571409
 Cl    31  30  29     3.306053102568   119.58082713   179.90318535
 Cl    36  35  34     3.306652912735   119.57980066   179.89727461
 C     17  16  15     2.786288933713   122.71374982   180.04187661
 N     47  17  16     2.551038617543   116.81057668   181.87841601
 C     48  47  17     2.471827841089   120.15840212   180.48977989
 C     49  48  47     2.696193343804   126.30843951     0.67876551
 C     50  49  48     2.679336197373   112.19212394   358.94349682
 C     51  50  49     2.619345309582   122.33589619     0.37157491
 C     50  49  48     2.767499531474   123.90582773   179.29433180
 C     53  50  49     2.788761673996   119.94287935   133.09174494
 C     53  50  49     2.787704516135   120.24218478   312.86111738
 C     55  53  50     2.680872257000   122.75705145   131.01631533
 C     56  55  53     2.628688595296   123.27576184   179.58491972
 C     57  56  55     2.628162977453   118.95616110     0.26938181
 C     58  57  56     2.628378281332   120.85145321   359.88087400
 C     59  58  57     2.628326027642   118.94533187   359.86126935
 C     54  53  50     2.681836900322   122.53665365   310.17226810
 C     61  54  53     2.628786772844   123.25663828   180.05439993
 C     62  61  54     2.628356398362   118.96604881     0.27274355
 C     63  62  61     2.628051666214   120.85222246   359.87369780
 C     64  63  62     2.628908044832   118.94640050   359.85932048
 Cl    51  50  49     3.310688921096   121.32322336   176.73093333
 Cl    60  59  58     3.316158574060   115.49748441   183.65689987
 Cl    18  17  16     9.302561934495   138.18287157   208.23532268
 Cl    49  48  47     3.334597631219   113.76966484   183.95134663
 Cl    61  54  53     3.314972918906   121.11152905   356.49379840
 Cl    65  64  63     3.314614248715   115.55219518   183.73908378
 Cl    58  57  56     3.306177200233   119.57869664   179.90606053
 Cl    63  62  61     3.306615393723   119.58162500   179.89223486
 O     12  11  10     2.575222272295   115.73387745   180.47233431
 C     74  12  11     2.683016084517   118.34098130   180.05819122
 H      1   2   3     2.048480146615   118.55139902   179.04771214
 H      3   2   1     2.051038135368   120.64034604   179.47535461
 H      4   3   2     2.049632404508   119.82910219   179.44791976
 H      6   1   2     2.050064786105   119.71202817   178.89467944
 H     10   9   7     2.051745688382   119.47514058     0.16743287
 H     11  10   9     2.051048028322   121.07171141   179.98615947
 H     13  12  11     2.048149572472   121.07616332   179.67690961
 H     14  13  12     2.051888939334   119.61334979   179.25821339
 H     15   8   7     2.049522778961   119.56137564     1.48071177
 H     16  15   8     2.051086222314   117.88088398   180.36701044
 H     18  17  16     2.048461860548   118.54964217   178.96778076
 H     19  18  17     2.050012160444   119.70693016   178.89890784
 H     25  24  23     2.044431215007   118.84141884   178.89722879
 H     30  29  28     2.046242153555   120.15555883   178.96737806
 H     32  31  30     2.046205259687   120.86806297   181.08211038
 H     35  34  27     2.046263810591   120.15470598   178.97202519
 H     37  36  35     2.046179476750   120.88172145   181.10288925
 H     52  51  50     2.044394248060   118.85227755   178.79454242
 H     57  56  55     2.046245364480   120.15730466   178.96605849
 H     59  58  57     2.046222379642   120.86962758   181.08017062
 H     62  61  54     2.046267370020   120.15057516   178.97929588
 H     64  63  62     2.046172758811   120.88025205   181.10917912
 H     75  74  12     2.062181723836   105.87156472   180.05174190
 H     75  74  12     2.074802763427   111.53460381   298.83935849
 H     75  74  12     2.074758816028   111.54853849    61.27007596

---------------------
BASIS SET INFORMATION
---------------------
There are 5 groups of distinct atoms

 Group   1 Type C   : 10s4p1d contracted to 3s2p1d pattern {631/31/1}
 Group   2 Type N   : 10s4p1d contracted to 3s2p1d pattern {631/31/1}
 Group   3 Type Cl  : 16s10p1d contracted to 4s3p1d pattern {6631/631/1}
 Group   4 Type O   : 10s4p1d contracted to 3s2p1d pattern {631/31/1}
 Group   5 Type H   : 4s1p contracted to 2s1p pattern {31/1}

Atom   0C    basis set group =>   1
Atom   1C    basis set group =>   1
Atom   2C    basis set group =>   1
Atom   3C    basis set group =>   1
Atom   4C    basis set group =>   1
Atom   5C    basis set group =>   1
Atom   6N    basis set group =>   2
Atom   7C    basis set group =>   1
Atom   8C    basis set group =>   1
Atom   9C    basis set group =>   1
Atom  10C    basis set group =>   1
Atom  11C    basis set group =>   1
Atom  12C    basis set group =>   1
Atom  13C    basis set group =>   1
Atom  14C    basis set group =>   1
Atom  15C    basis set group =>   1
Atom  16C    basis set group =>   1
Atom  17C    basis set group =>   1
Atom  18C    basis set group =>   1
Atom  19C    basis set group =>   1
Atom  20N    basis set group =>   2
Atom  21C    basis set group =>   1
Atom  22C    basis set group =>   1
Atom  23C    basis set group =>   1
Atom  24C    basis set group =>   1
Atom  25C    basis set group =>   1
Atom  26C    basis set group =>   1
Atom  27C    basis set group =>   1
Atom  28C    basis set group =>   1
Atom  29C    basis set group =>   1
Atom  30C    basis set group =>   1
Atom  31C    basis set group =>   1
Atom  32C    basis set group =>   1
Atom  33C    basis set group =>   1
Atom  34C    basis set group =>   1
Atom  35C    basis set group =>   1
Atom  36C    basis set group =>   1
Atom  37C    basis set group =>   1
Atom  38Cl   basis set group =>   3
Atom  39Cl   basis set group =>   3
Atom  40Cl   basis set group =>   3
Atom  41Cl   basis set group =>   3
Atom  42Cl   basis set group =>   3
Atom  43Cl   basis set group =>   3
Atom  44Cl   basis set group =>   3
Atom  45Cl   basis set group =>   3
Atom  46C    basis set group =>   1
Atom  47N    basis set group =>   2
Atom  48C    basis set group =>   1
Atom  49C    basis set group =>   1
Atom  50C    basis set group =>   1
Atom  51C    basis set group =>   1
Atom  52C    basis set group =>   1
Atom  53C    basis set group =>   1
Atom  54C    basis set group =>   1
Atom  55C    basis set group =>   1
Atom  56C    basis set group =>   1
Atom  57C    basis set group =>   1
Atom  58C    basis set group =>   1
Atom  59C    basis set group =>   1
Atom  60C    basis set group =>   1
Atom  61C    basis set group =>   1
Atom  62C    basis set group =>   1
Atom  63C    basis set group =>   1
Atom  64C    basis set group =>   1
Atom  65Cl   basis set group =>   3
Atom  66Cl   basis set group =>   3
Atom  67Cl   basis set group =>   3
Atom  68Cl   basis set group =>   3
Atom  69Cl   basis set group =>   3
Atom  70Cl   basis set group =>   3
Atom  71Cl   basis set group =>   3
Atom  72Cl   basis set group =>   3
Atom  73O    basis set group =>   4
Atom  74C    basis set group =>   1
Atom  75H    basis set group =>   5
Atom  76H    basis set group =>   5
Atom  77H    basis set group =>   5
Atom  78H    basis set group =>   5
Atom  79H    basis set group =>   5
Atom  80H    basis set group =>   5
Atom  81H    basis set group =>   5
Atom  82H    basis set group =>   5
Atom  83H    basis set group =>   5
Atom  84H    basis set group =>   5
Atom  85H    basis set group =>   5
Atom  86H    basis set group =>   5
Atom  87H    basis set group =>   5
Atom  88H    basis set group =>   5
Atom  89H    basis set group =>   5
Atom  90H    basis set group =>   5
Atom  91H    basis set group =>   5
Atom  92H    basis set group =>   5
Atom  93H    basis set group =>   5
Atom  94H    basis set group =>   5
Atom  95H    basis set group =>   5
Atom  96H    basis set group =>   5
Atom  97H    basis set group =>   5
Atom  98H    basis set group =>   5
Atom  99H    basis set group =>   5
---------------------------------
AUXILIARY/J BASIS SET INFORMATION
---------------------------------
There are 5 groups of distinct atoms

 Group   1 Type C   : 12s5p4d2f1g contracted to 6s4p3d1f1g pattern {711111/2111/211/2/1}
 Group   2 Type N   : 12s5p4d2f1g contracted to 6s4p3d1f1g pattern {711111/2111/211/2/1}
 Group   3 Type Cl  : 14s5p5d2f1g contracted to 8s4p3d1f1g pattern {71111111/2111/311/2/1}
 Group   4 Type O   : 12s5p4d2f1g contracted to 6s4p3d1f1g pattern {711111/2111/211/2/1}
 Group   5 Type H   : 5s2p1d contracted to 3s1p1d pattern {311/2/1}

Atom   0C    basis set group =>   1
Atom   1C    basis set group =>   1
Atom   2C    basis set group =>   1
Atom   3C    basis set group =>   1
Atom   4C    basis set group =>   1
Atom   5C    basis set group =>   1
Atom   6N    basis set group =>   2
Atom   7C    basis set group =>   1
Atom   8C    basis set group =>   1
Atom   9C    basis set group =>   1
Atom  10C    basis set group =>   1
Atom  11C    basis set group =>   1
Atom  12C    basis set group =>   1
Atom  13C    basis set group =>   1
Atom  14C    basis set group =>   1
Atom  15C    basis set group =>   1
Atom  16C    basis set group =>   1
Atom  17C    basis set group =>   1
Atom  18C    basis set group =>   1
Atom  19C    basis set group =>   1
Atom  20N    basis set group =>   2
Atom  21C    basis set group =>   1
Atom  22C    basis set group =>   1
Atom  23C    basis set group =>   1
Atom  24C    basis set group =>   1
Atom  25C    basis set group =>   1
Atom  26C    basis set group =>   1
Atom  27C    basis set group =>   1
Atom  28C    basis set group =>   1
Atom  29C    basis set group =>   1
Atom  30C    basis set group =>   1
Atom  31C    basis set group =>   1
Atom  32C    basis set group =>   1
Atom  33C    basis set group =>   1
Atom  34C    basis set group =>   1
Atom  35C    basis set group =>   1
Atom  36C    basis set group =>   1
Atom  37C    basis set group =>   1
Atom  38Cl   basis set group =>   3
Atom  39Cl   basis set group =>   3
Atom  40Cl   basis set group =>   3
Atom  41Cl   basis set group =>   3
Atom  42Cl   basis set group =>   3
Atom  43Cl   basis set group =>   3
Atom  44Cl   basis set group =>   3
Atom  45Cl   basis set group =>   3
Atom  46C    basis set group =>   1
Atom  47N    basis set group =>   2
Atom  48C    basis set group =>   1
Atom  49C    basis set group =>   1
Atom  50C    basis set group =>   1
Atom  51C    basis set group =>   1
Atom  52C    basis set group =>   1
Atom  53C    basis set group =>   1
Atom  54C    basis set group =>   1
Atom  55C    basis set group =>   1
Atom  56C    basis set group =>   1
Atom  57C    basis set group =>   1
Atom  58C    basis set group =>   1
Atom  59C    basis set group =>   1
Atom  60C    basis set group =>   1
Atom  61C    basis set group =>   1
Atom  62C    basis set group =>   1
Atom  63C    basis set group =>   1
Atom  64C    basis set group =>   1
Atom  65Cl   basis set group =>   3
Atom  66Cl   basis set group =>   3
Atom  67Cl   basis set group =>   3
Atom  68Cl   basis set group =>   3
Atom  69Cl   basis set group =>   3
Atom  70Cl   basis set group =>   3
Atom  71Cl   basis set group =>   3
Atom  72Cl   basis set group =>   3
Atom  73O    basis set group =>   4
Atom  74C    basis set group =>   1
Atom  75H    basis set group =>   5
Atom  76H    basis set group =>   5
Atom  77H    basis set group =>   5
Atom  78H    basis set group =>   5
Atom  79H    basis set group =>   5
Atom  80H    basis set group =>   5
Atom  81H    basis set group =>   5
Atom  82H    basis set group =>   5
Atom  83H    basis set group =>   5
Atom  84H    basis set group =>   5
Atom  85H    basis set group =>   5
Atom  86H    basis set group =>   5
Atom  87H    basis set group =>   5
Atom  88H    basis set group =>   5
Atom  89H    basis set group =>   5
Atom  90H    basis set group =>   5
Atom  91H    basis set group =>   5
Atom  92H    basis set group =>   5
Atom  93H    basis set group =>   5
Atom  94H    basis set group =>   5
Atom  95H    basis set group =>   5
Atom  96H    basis set group =>   5
Atom  97H    basis set group =>   5
Atom  98H    basis set group =>   5
Atom  99H    basis set group =>   5


           ************************************************************
           *        Program running with 24 parallel MPI-processes    *
           *              working on a common directory               *
           ************************************************************
------------------------------------------------------------------------------
                             ORCA STARTUP CALCULATIONS
                           -- RI-GTO INTEGRALS CHOSEN --
------------------------------------------------------------------------------
------------------------------------------------------------------------------
                   ___                                                        
                  /   \      - P O W E R E D   B Y -                         
                 /     \                                                     
                 |  |  |   _    _      __       _____    __    __             
                 |  |  |  | |  | |    /  \     |  _  \  |  |  /  |          
                  \  \/   | |  | |   /    \    | | | |  |  | /  /          
                 / \  \   | |__| |  /  /\  \   | |_| |  |  |/  /          
                |  |  |   |  __  | /  /__\  \  |    /   |      \           
                |  |  |   | |  | | |   __   |  |    \   |  |\   \          
                \     /   | |  | | |  |  |  |  | |\  \  |  | \   \       
                 \___/    |_|  |_| |__|  |__|  |_| \__\ |__|  \__/        
                                                                              
                      - O R C A' S   B I G   F R I E N D -                    
                                      &                                       
                       - I N T E G R A L  F E E D E R -                       
                                                                              
 v1 FN, 2020, v2 2021, v3 2022-2024                                           
------------------------------------------------------------------------------


----------------------
SHARK INTEGRAL PACKAGE
----------------------

Number of atoms                             ...    100
Number of basis functions                   ...   1239
Number of shells                            ...    557
Maximum angular momentum                    ...      2
Integral batch strategy                     ... SHARK/LIBINT Hybrid
RI-J (if used) integral strategy            ... SPLIT-RIJ (Revised 2003 algorithm where possible)
Printlevel                                  ...      1
Contraction scheme used                     ... SEGMENTED contraction
Prescreening option                         ... SCHWARTZ
   Thresh                                   ... 2.500e-11
   Tcut                                     ... 2.500e-12
   Tpresel                                  ... 2.500e-12 
Coulomb Range Separation                    ... NOT USED
Exchange Range Separation                   ... Long Range
   Mu parameter                             ... 3.300e-01
   Scaling (regular/separated)              ... 1.900e-01 4.600e-01
Robust (split-)RI terms used:
  metric    (central integrals)             ... YES
  density   (r.h.s.  integrals)             ... YES
  potential (l.h.s.  integrals)             ... YES
Multipole approximations                    ... NOT USED
Finite Nucleus Model                        ... NOT USED
CABS basis                                  ... NOT available
Auxiliary Coulomb fitting basis             ... AVAILABLE
   # of basis functions in Aux-J            ...   3982
   # of shells in Aux-J                     ...   1282
   Maximum angular momentum in Aux-J        ...      4
Auxiliary J/K fitting basis                 ... NOT available
Auxiliary Correlation fitting basis         ... NOT available
Auxiliary 'external' fitting basis          ... NOT available

Checking pre-screening integrals            ... done (  0.0 sec) Dimension = 557
   => SHARK Basis and OBASIS are compatible. Storing Pre-screening
Shell pair information
Shell pair cut-off parameter TPreSel        ...   2.5e-12
Total number of shell pairs                 ...    155403
Shell pairs after pre-screening             ...     43018
Total number of primitive shell pairs       ...   1042533
Primitive shell pairs kept                  ...    136908
          la=0 lb=0:  11193 shell pairs
          la=1 lb=0:  16224 shell pairs
          la=1 lb=1:   5992 shell pairs
          la=2 lb=0:   5070 shell pairs
          la=2 lb=1:   3904 shell pairs
          la=2 lb=2:    635 shell pairs

Checking whether 4 symmetric matrices of dimension 1239 fit in memory
:Max Core in MB      =  20000.00
 MB in use           =     62.88
 MB left             =  19937.12
 MB needed           =     23.44
 Data fit in memory  = YES
Calculating RI/J V-Matrix + Cholesky decomp.... done (  0.8 sec)
Calculating Nuclear repulsion               ... done (  0.0 sec) ENN=  15155.489158828235 Eh

Diagonalization of the overlap matrix:
Smallest eigenvalue                        ... 3.635e-04
Time for diagonalization                   ...    0.103 sec
Threshold for overlap eigenvalues          ... 1.000e-07
Number of eigenvalues below threshold      ... 0
Time for construction of square roots      ...    0.070 sec
Total time needed                          ...    0.183 sec

-------------------
DFT GRID GENERATION
-------------------

General Integration Accuracy     IntAcc      ... 4.388
Radial Grid Type                 RadialGrid  ... OptM3 with GC (2021)
Angular Grid (max. ang.)         AngularGrid ... 4 (Lebedev-302)
Angular grid pruning method      GridPruning ... 4 (adaptive)
Weight generation scheme         WeightScheme... mBecke (2022)
Basis function cutoff            BFCut       ... 1.0000e-11
Integration weight cutoff        WCut        ... 1.0000e-14
Partially contracted basis set               ... off
Rotationally invariant grid construction     ... off
Angular grids for H and He will be reduced by one unit

Total number of grid points                  ...   546265
Total number of batches                      ...     8580
Average number of points per batch           ...       63
Average number of grid points per atom       ...     5463

--------------------
COSX GRID GENERATION
--------------------

GRIDX 1
-------
General Integration Accuracy     IntAcc      ... 3.816
Radial Grid Type                 RadialGrid  ... OptM3 with GC (2021)
Angular Grid (max. ang.)         AngularGrid ... 1 (Lebedev-50)
Angular grid pruning method      GridPruning ... 4 (adaptive)
Weight generation scheme         WeightScheme... mBecke (2022)
Basis function cutoff            BFCut       ... 1.0000e-11
Integration weight cutoff        WCut        ... 1.0000e-14
Partially contracted basis set               ... on
Rotationally invariant grid construction     ... off
Angular grids for H and He will be reduced by one unit

Total number of grid points                  ...    85369
Total number of batches                      ...      720
Average number of points per batch           ...      118
Average number of grid points per atom       ...      854
UseSFitting                                  ... on

GRIDX 2
-------
General Integration Accuracy     IntAcc      ... 4.020
Radial Grid Type                 RadialGrid  ... OptM3 with GC (2021)
Angular Grid (max. ang.)         AngularGrid ... 2 (Lebedev-110)
Angular grid pruning method      GridPruning ... 4 (adaptive)
Weight generation scheme         WeightScheme... mBecke (2022)
Basis function cutoff            BFCut       ... 1.0000e-11
Integration weight cutoff        WCut        ... 1.0000e-14
Partially contracted basis set               ... on
Rotationally invariant grid construction     ... off
Angular grids for H and He will be reduced by one unit

Total number of grid points                  ...   150716
Total number of batches                      ...     1231
Average number of points per batch           ...      122
Average number of grid points per atom       ...     1507
UseSFitting                                  ... on

GRIDX 3
-------
General Integration Accuracy     IntAcc      ... 4.338
Radial Grid Type                 RadialGrid  ... OptM3 with GC (2021)
Angular Grid (max. ang.)         AngularGrid ... 3 (Lebedev-194)
Angular grid pruning method      GridPruning ... 4 (adaptive)
Weight generation scheme         WeightScheme... mBecke (2022)
Basis function cutoff            BFCut       ... 1.0000e-11
Integration weight cutoff        WCut        ... 1.0000e-14
Partially contracted basis set               ... on
Rotationally invariant grid construction     ... off
Angular grids for H and He will be reduced by one unit

Total number of grid points                  ...   338877
Total number of batches                      ...     2704
Average number of points per batch           ...      125
Average number of grid points per atom       ...     3389
UseSFitting                                  ... on
Grids setup in   4.1 sec
Initializing property integral containers    ... done (  0.0 sec)

SHARK setup successfully completed in   6.5 seconds

Maximum memory used throughout the entire STARTUP-calculation: 156.0 MB


           ************************************************************
           *        Program running with 24 parallel MPI-processes    *
           *              working on a common directory               *
           ************************************************************
-------------------------------------------------------------------------------
                                 ORCA GUESS
                   Start orbitals & Density for SCF / CASSCF
-------------------------------------------------------------------------------

------------
SCF SETTINGS
------------
Hamiltonian:
 Density Functional     Method          .... DFT(GTOs)
 Exchange Functional    Exchange        .... WB88
 Correlation Functional Correlation     .... LYP
 LDA part of GGA corr.  LDAOpt          .... VWN-5
 Gradients option       PostSCFGGA      .... off
 Hybrid DFT is turned on
   Fraction HF Exchange ScalHFX         ....  0.190000
   Scaling of DF-GGA-X  ScalDFX         ....  0.350000
   Scaling of DF-GGA-C  ScalDFC         ....  0.810000
   Scaling of DF-LDA-C  ScalLDAC        ....  1.000000
   Perturbative correction              ....  0.000000
 Long-range corrected/Screened/Range-Separated Hybrid DFT is turned on
   Amount of maximum screened exact exchange              ....  0.460000
   Range separation parameter mu (erf(mu*r12)/r12)        ....  0.330000
 RI-approximation to the Coulomb term is turned on
   Number of AuxJ basis functions       .... 3982
   RIJ-COSX (HFX calculated with COS-X)).... on


General Settings:
 Integral files         IntName         .... TPA-OMe
 Hartree-Fock type      HFTyp           .... UHF
 Total Charge           Charge          ....    0
 Multiplicity           Mult            ....    1
 Number of Electrons    NEL             ....  656
 Basis Dimension        Dim             .... 1239
 Nuclear Repulsion      ENuc            ....  15155.4891588282 Eh

Convergence Acceleration:
 AO-DIIS                CNVDIIS         .... on
   Start iteration      DIISMaxIt       ....    12
   Startup error        DIISStart       ....  0.200000
   # of expansion vecs  DIISMaxEq       ....     5
   Bias factor          DIISBfac        ....   1.050
   Max. coefficient     DIISMaxC        ....  10.000
 MO-DIIS                CNVKDIIS        .... off
 Trust-Rad. Augm. Hess. CNVTRAH         .... auto
   Auto Start mean grad. ratio tolernc. ....  1.125000
   Auto Start start iteration           ....    50
   Auto Start num. interpolation iter.  ....    10
   Max. Number of Micro iterations      ....    24
   Max. Number of Macro iterations      .... Maxiter - #DIIS iter
   Number of Davidson start vectors     ....     2
   Converg. threshold    (grad. norm)   ....   1.000e-05
   Grad. Scal. Fac. for Micro threshold ....   0.100
   Minimum threshold for Micro iter.    ....   1.000e-02
   NR start threshold (gradient norm)   ....   1.000e-04
   Initial trust radius                 ....   0.400
   Minimum AH scaling param. (alpha)    ....   1.000
   Maximum AH scaling param. (alpha)    .... 1000.000
   Quad. conv. algorithm                .... NR
   White noise on init. David. guess    .... on
   Maximum white noise                  ....   0.010
   Pseudo random numbers                .... off
   Inactive MOs                         .... canonical
   Orbital update algorithm             .... Taylor
   Preconditioner                       .... Diag
   Full preconditioner red. dimension   ....   250
 SOSCF                 CNVSOSCF           .... on
   Start iteration     SOSCFMaxIt         ....   150
   Startup grad/error  SOSCFStart         ....  0.003300
   Hessian update      SOSCFHessUp        .... L-BFGS
   Autom. constraints  SOSCFAutoConstrain .... off
 Level Shifting         CNVShift        .... on
   Level shift para.    LevelShift      ....    0.2500
   Turn off err/grad.   ShiftErr        ....    0.0010
 Zerner damping         CNVZerner       .... off
 Static damping         CNVDamp         .... on
   Fraction old density DampFac         ....    0.7000
   Max. Damping (<1)    DampMax         ....    0.9800
   Min. Damping (>=0)   DampMin         ....    0.0000
   Turn off err/grad.   DampErr         ....    0.1000

SCF Procedure:
 Maximum # iterations   MaxIter         ....  1500
 SCF integral mode      SCFMode         .... Direct
   Integral package                     .... SHARK and LIBINT hybrid scheme
 Reset frequency        DirectResetFreq ....    20
 Integral Threshold     Thresh          ....  2.500e-11 Eh
 Primitive CutOff       TCut            ....  2.500e-12 Eh

Convergence Tolerance:
 Convergence Check Mode ConvCheckMode   .... Total+1el-Energy
 Convergence forced     ConvForced      .... 1
 Energy Change          TolE            ....  1.000e-08 Eh
 1-El. energy change                    ....  1.000e-05 Eh
 Orbital Gradient       TolG            ....  1.000e-05
 Orbital Rotation angle TolX            ....  1.000e-05
 DIIS Error             TolErr          ....  5.000e-07


The Flip-Spin feature is operative for generating broken symmetry solutions
List of atoms to flip:
 C 25
We will now do a high-spin calculation with                 Ms=  0.0
and then try to converge to the broken symmetry state with Ms=  0.0

------------------------------
INITIAL GUESS: MODEL POTENTIAL
------------------------------
Loading Hartree-Fock densities                     ... done
Calculating cut-offs                               ... done
Initializing the effective Hamiltonian             ... done
Setting up the integral package (SHARK)            ... done
Starting the Coulomb interaction                   ... done (   0.4 sec)
Making the grid                                    ... done (   0.5 sec)
Mapping shells                                     ... done
Starting the XC term evaluation                    ... done (   0.1 sec)
  promolecular density results
     # of electrons  =    655.997417812
     EX              =   -754.682616806
     EC              =    -23.764999497
     EX+EC           =   -778.447616303
Transforming the Hamiltonian                       ... done (   0.1 sec)
Diagonalizing the Hamiltonian                      ... done (   0.1 sec)
Back transforming the eigenvectors                 ... done (   0.1 sec)
Now organizing SCF variables                       ... done
                      ------------------
                      INITIAL GUESS DONE (   1.3 sec)
                      ------------------
             **** ENERGY FILE WAS UPDATED (TPA-OMe.en.tmp) ****
Finished Guess after   3.8 sec
Maximum memory used throughout the entire GUESS-calculation: 90.7 MB


           ************************************************************
           *        Program running with 24 parallel MPI-processes    *
           *              working on a common directory               *
           ************************************************************

-------------------------------------------------------------------------------------------
                                      ORCA LEAN-SCF
                              memory conserving SCF solver
-------------------------------------------------------------------------------------------

                     ******************************************
                               F L I P    S P I N
                           -----------------------------
                            High-Spin SCF calculation
                                S(HS) =   0.0
                      ******************************************
 ----------------------------------------D-I-I-S--------------------------------------------
Iteration    Energy (Eh)           Delta-E    RMSDP     MaxDP     DIISErr   Damp  Time(sec)
-------------------------------------------------------------------------------------------
               ***  Starting incremental Fock matrix formation  ***
    1    -9710.7596009728349600     0.00e+00  2.60e-03  6.83e-02  7.87e-02  0.700  11.7
Warning: op=0 Small HOMO/LUMO gap (  -0.181) - skipping pre-diagonalization
         LevelShift set to 0.281 Eh
         Will do a full diagonalization
    2    -9711.2086645695071638    -4.49e-01  1.90e-03  3.95e-02  4.66e-02  0.700   6.3
                               ***Turning on AO-DIIS***
    3    -9711.3313985945078457    -1.23e-01  1.28e-03  3.48e-02  2.61e-02  0.700   5.8
    4    -9711.4933975026160624    -1.62e-01  2.46e-03  7.49e-02  1.36e-02  0.000   5.8
    5    -9711.6708331890204136    -1.77e-01  6.87e-04  1.35e-02  5.38e-02  0.000   6.2
    6    -9711.7071591990006709    -3.63e-02  4.96e-04  1.13e-02  3.83e-02  0.000   5.4
    7    -9711.7366608681932121    -2.95e-02  9.58e-04  2.31e-02  2.89e-02  0.000   5.3
    8    -9711.7814642043977074    -4.48e-02  3.37e-04  7.72e-03  1.14e-02  0.000   5.7
    9    -9711.7891760638322012    -7.71e-03  3.11e-04  7.62e-03  6.75e-03  0.000   5.4
   10    -9711.7938734795261553    -4.70e-03  2.74e-04  1.02e-02  4.81e-03  0.000   5.2
   11    -9711.7972619111478707    -3.39e-03  2.94e-04  1.21e-02  5.49e-03  0.000   4.9
   12    -9711.8010670638705051    -3.81e-03  3.23e-04  1.34e-02  5.76e-03  0.000   4.8
   13    -9711.8047492510067968    -3.68e-03  3.62e-04  1.59e-02  6.45e-03  0.000   4.7
   14    -9711.8069892890762276    -2.24e-03  4.10e-04  2.31e-02  1.16e-02  0.000   4.7
   15    -9711.8048540331965341     2.14e-03  4.71e-04  3.11e-02  1.95e-02  0.000   4.9
   16    -9711.7932778437516390     1.16e-02  4.37e-04  2.92e-02  3.19e-02  0.000   5.1
   17    -9711.7739523855107109     1.93e-02  3.65e-04  2.26e-02  5.01e-02  0.000   5.1
   18    -9711.7558503883901722     1.81e-02  2.86e-04  9.18e-03  6.22e-02  0.000   5.0
   19    -9711.7522683568186039     3.58e-03  2.67e-04  1.11e-02  6.31e-02  0.000   4.8
   20    -9711.7671732677354157    -1.49e-02  4.67e-04  3.59e-02  5.26e-02  0.000   4.7
               *** Restarting incremental Fock matrix formation ***
                             ****Resetting DIIS****
Warning: op=0 Small HOMO/LUMO gap (  -0.014) - skipping pre-diagonalization
         Will do a full diagonalization
   21    -9711.7948918494857935    -2.77e-02  2.28e-03  1.76e-01  2.93e-02  0.000   7.5
   22    -9711.7536298645591160     4.13e-02  7.74e-04  3.84e-02  4.89e-02  0.000   6.0
   23    -9711.7921958317801909    -3.86e-02  5.08e-04  3.50e-02  2.90e-02  0.000   5.2
   24    -9711.8079705650616233    -1.58e-02  3.44e-04  1.99e-02  1.43e-02  0.000   5.0
   25    -9711.8145570866963681    -6.59e-03  2.18e-04  9.16e-03  7.28e-03  0.000   4.9
   26    -9711.8167607366031007    -2.20e-03  2.19e-04  7.84e-03  4.86e-03  0.000   4.7
                              *** Initializing SOSCF ***
---------------------------------------S-O-S-C-F--------------------------------------
Iteration    Energy (Eh)           Delta-E    RMSDP     MaxDP     MaxGrad    Time(sec)
--------------------------------------------------------------------------------------
   27    -9711.8182300198150187    -1.47e-03  1.80e-04  4.14e-03  2.03e-03     5.3
               *** Restarting incremental Fock matrix formation ***
   28    -9711.8198736779067985    -1.64e-03  2.84e-04  1.54e-02  4.75e-03    12.0
   29    -9711.8203101907620294    -4.37e-04  4.58e-04  8.86e-03  8.83e-03     8.6
               *** Scaled step length from 0.472936 to 0.200000 ***
   30    -9711.8223930562617170    -2.08e-03  7.29e-04  1.48e-02  4.57e-03     9.3
   31    -9711.8241190817261668    -1.73e-03  4.09e-04  9.59e-03  3.11e-03     9.6
   32    -9711.8243586996813974    -2.40e-04  1.40e-04  4.62e-03  3.22e-03     9.4
   33    -9711.8247058981341979    -3.47e-04  1.30e-04  2.12e-03  7.66e-04     7.9
   34    -9711.8247452743471513    -3.94e-05  4.99e-05  1.05e-03  4.89e-04     8.1
   35    -9711.8247708177386812    -2.55e-05  3.86e-05  9.06e-04  2.87e-04     7.3
   36    -9711.8247764275856753    -5.61e-06  1.97e-05  3.98e-04  1.43e-04     7.0
   37    -9711.8247800823901343    -3.65e-06  2.16e-05  6.37e-04  1.43e-04     6.6
   38    -9711.8247821527420456    -2.07e-06  1.91e-05  7.54e-04  1.41e-04     6.9
   39    -9711.8247839675514115    -1.81e-06  3.96e-05  1.75e-03  1.39e-04     6.4
   40    -9711.8247870855066139    -3.12e-06  5.59e-05  2.65e-03  1.32e-04     7.1
   41    -9711.8247908928151446    -3.81e-06  9.29e-05  4.59e-03  1.37e-04     7.1
   42    -9711.8247967254701507    -5.83e-06  1.33e-04  6.72e-03  2.87e-04     7.2
   43    -9711.8248050638412678    -8.34e-06  1.15e-04  5.84e-03  5.98e-04     7.2
   44    -9711.8248167528090562    -1.17e-05  9.95e-05  4.94e-03  5.71e-04     7.8
   45    -9711.8248278888186178    -1.11e-05  2.34e-04  1.22e-02  3.98e-04     8.4
   46    -9711.8248339222536742    -6.03e-06  1.95e-04  9.02e-03  2.25e-03     8.7
Curvature condition for BFGS not met. Restarting diagonal Hessian.
   47    -9711.8249160846698942    -8.22e-05  3.81e-04  2.42e-02  3.55e-03     9.8
               *** Restarting incremental Fock matrix formation ***
   48    -9711.8232096959127375     1.71e-03  7.09e-04  5.67e-02  1.29e-02    12.0
   49    -9711.8168815614426421     6.33e-03  4.62e-04  3.45e-02  2.82e-02     9.9
   50    -9711.8246391520788166    -7.76e-03  1.74e-04  1.19e-02  3.20e-03     8.7

       ******************************************************************************
       ***                                                                        ***
       ***                               Auto-TRAH                                ***
       ***                               ---------                                ***
       *** the maximum gradient error decreased on average only by a factor   0.7 ***
       *** during the last  10 iterations                                         ***
       ***                                                                        ***
       ***               Leaving SCF to start the TRAH-SCF procedure              ***
       ***                                                                        ***
       ******************************************************************************

 --------------------------------------------------------------------------------------------
   Iter.        energy            ||Error||_2        Shift      TRadius  Mac/Mic        Rej.
 --------------------------------------------------------------------------------------------
    0      -9711.824876661827     4.327161e-03                     0.400 (TRAH MAcro)   No
    0     dE    -1.139231e-02     7.385079e-02    -8.0650e-02      0.358 (TRAH MIcro)
    0     dE    -1.995810e-02     3.097888e-02    -1.1804e-01      0.400 (TRAH MIcro)
    0     dE    -2.089497e-02     1.963024e-02    -1.2405e-01      0.400 (TRAH MIcro)
    0     dE    -2.131671e-02     8.301686e-03    -1.2658e-01      0.400 (TRAH MIcro)
    0     dE    -2.137333e-02     4.354847e-03    -1.2693e-01      0.400 (TRAH MIcro)
    0     dE    -2.139479e-02     2.145524e-03    -1.2707e-01      0.400 (TRAH MIcro)
    0     dE    -2.139785e-02     8.286193e-04    -1.2709e-01      0.400 (TRAH MIcro)
    0     dE    -2.139852e-02     3.678131e-04    -1.2709e-01      0.400 (TRAH MIcro)
    1      -9711.842414556515     4.290385e-02                     0.480 (TRAH MAcro)   No
    1     dE    -2.512479e-02     1.164110e-01    -4.4927e-02      0.480 (TRAH MIcro)
    1     dE    -3.710839e-02     4.117949e-02    -8.5720e-02      0.480 (TRAH MIcro)
    1     dE    -3.850766e-02     2.250151e-02    -9.1699e-02      0.480 (TRAH MIcro)
    1     dE    -3.919003e-02     1.087677e-02    -9.4937e-02      0.480 (TRAH MIcro)
    1     dE    -3.929404e-02     6.011987e-03    -9.5449e-02      0.480 (TRAH MIcro)
    1     dE    -3.934258e-02     3.686126e-03    -9.5718e-02      0.480 (TRAH MIcro)
    2      -9711.870426854000     2.766723e-02                     0.480 (TRAH MAcro)   No
    2     dE    -6.825687e-03     5.342337e-02    -6.2554e-03      0.302 (TRAH MIcro)
    2     dE    -1.222669e-02     4.218747e-02    -1.0243e-02      0.440 (TRAH MIcro)
    2     dE    -2.027633e-02     7.086126e-02    -6.4892e-02      0.445 (TRAH MIcro)
    2     dE    -1.221670e-02     1.474875e-02    -1.0705e-01      0.269 (TRAH MIcro)
    2     dE    -1.386591e-02     8.282098e-03    -1.1007e-01      0.290 (TRAH MIcro)
    2     dE    -1.411615e-02     2.768058e-03    -1.1046e-01      0.294 (TRAH MIcro)
    2     dE    -1.431916e-02     2.007702e-03    -1.1055e-01      0.297 (TRAH MIcro)
    3      -9711.883944302048     3.065289e-02                     0.576 (TRAH MAcro)   No
    3     dE    -2.829020e-02     9.029413e-02    -3.8175e-02      0.576 (TRAH MIcro)
    3     dE    -4.327999e-02     6.231039e-02    -8.1464e-02      0.576 (TRAH MIcro)
    3     dE    -4.695103e-02     3.378797e-02    -9.5379e-02      0.572 (TRAH MIcro)
    3     dE    -4.822294e-02     1.042742e-02    -9.8276e-02      0.576 (TRAH MIcro)
    3     dE    -4.833025e-02     5.790722e-03    -9.8506e-02      0.576 (TRAH MIcro)
    3     dE    -4.835878e-02     2.473638e-03    -9.8633e-02      0.576 (TRAH MIcro)
    4      -9711.917928845769     3.480546e-02                     0.576 (TRAH MAcro)   No
    4     dE    -8.924614e-03     5.170876e-02    -8.1082e-03      0.317 (TRAH MIcro)
    4     dE    -1.307892e-02     3.013316e-02    -1.1029e-02      0.431 (TRAH MIcro)
    4     dE    -1.489494e-02     2.492302e-02    -1.2187e-02      0.471 (TRAH MIcro)
    4     dE    -1.589795e-02     1.061225e-02    -1.2724e-02      0.499 (TRAH MIcro)
    4     dE    -1.609721e-02     6.602724e-03    -1.2816e-02      0.506 (TRAH MIcro)
    4     dE    -1.617468e-02     3.394480e-03    -1.2863e-02      0.507 (TRAH MIcro)
    5      -9711.927799952895     5.512107e-02                     0.576 (TRAH MAcro)   No
    5     dE    -2.110196e-03     1.545381e-02    -2.1049e-03      0.050 (TRAH MIcro)
    5     dE    -2.489680e-03     1.030889e-02    -2.4728e-03      0.083 (TRAH MIcro)
    5     dE    -2.593395e-03     5.229323e-03    -2.5680e-03      0.099 (TRAH MIcro)
    6      -9711.930470648005     5.451600e-03                     0.691 (TRAH MAcro)   No
    6     dE    -6.336163e-05     5.846554e-03    -6.3327e-05      0.023 (TRAH MIcro)
    6     dE    -1.210648e-04     4.845636e-03    -1.2067e-04      0.057 (TRAH MIcro)
    6     dE    -1.429281e-04     2.420715e-03    -1.4213e-04      0.075 (TRAH MIcro)
    6     dE    -1.522053e-04     1.630057e-03    -1.5109e-04      0.086 (TRAH MIcro)
    6     dE    -1.568794e-04     1.156881e-03    -1.5552e-04      0.094 (TRAH MIcro)
    6     dE    -1.581357e-04     6.477771e-04    -1.5669e-04      0.096 (TRAH MIcro)
    6     dE    -1.586542e-04     4.339484e-04    -1.5718e-04      0.097 (TRAH MIcro)
    7      -9711.930637652744     2.808445e-03                     0.829 (TRAH MAcro)   No
    7     dE    -6.621991e-06     1.061764e-03    -6.6219e-06      0.004 (TRAH MIcro)
    7     dE    -8.458657e-06     9.500797e-04    -8.4581e-06      0.008 (TRAH MIcro)
    7     dE    -1.166837e-05     1.166846e-03    -1.1663e-05      0.021 (TRAH MIcro)
    7     dE    -1.297058e-05     7.282965e-04    -1.2961e-05      0.028 (TRAH MIcro)
    7     dE    -1.364564e-05     4.878156e-04    -1.3632e-05      0.031 (TRAH MIcro)
    7     dE    -1.392386e-05     3.859256e-04    -1.3909e-05      0.033 (TRAH MIcro)
    7     dE    -1.425861e-05     5.112033e-04    -1.4242e-05      0.034 (TRAH MIcro)
    7     dE    -1.484712e-05     7.991683e-04    -1.4828e-05      0.036 (TRAH MIcro)
    7     dE    -1.752308e-05     1.675792e-03    -1.7480e-05      0.049 (TRAH MIcro)
    7     dE    -2.253876e-05     2.094818e-03    -2.2373e-05      0.086 (TRAH MIcro)
    7     dE    -2.875512e-05     1.406658e-03    -2.8240e-05      0.135 (TRAH MIcro)
    7     dE    -3.102127e-05     9.765895e-04    -3.0312e-05      0.153 (TRAH MIcro)
    7     dE    -3.228343e-05     7.006205e-04    -3.1450e-05      0.163 (TRAH MIcro)
    7     dE    -3.277906e-05     4.376303e-04    -3.1893e-05      0.167 (TRAH MIcro)
    7     dE    -3.296750e-05     2.570838e-04    -3.2061e-05      0.168 (TRAH MIcro)
    8      -9711.930668268113     2.324007e-03                     0.995 (TRAH MAcro)   No
    8     dE    -3.729220e-06     4.940729e-04    -3.7292e-06      0.002 (TRAH MIcro)
    8     dE    -3.879047e-06     2.025519e-04    -3.8790e-06      0.002 (TRAH MIcro)
    9      -9711.930672144024     2.024875e-04                     1.194 (TRAH MAcro)   No
    9     dE    -4.768213e-08     1.584471e-04    -4.7682e-08      0.001 (TRAH MIcro)
    9     dE    -1.179062e-07     2.170542e-04    -1.1791e-07      0.002 (TRAH MIcro)
    9     dE    -1.840490e-07     1.502758e-04    -1.8405e-07      0.004 (TRAH MIcro)
    9     dE    -2.015609e-07     6.494281e-05    -2.0156e-07      0.005 (TRAH MIcro)
    9     dE    -2.050202e-07     3.661759e-05    -2.0502e-07      0.005 (TRAH MIcro)
    9     dE    -2.069109e-07     2.615271e-05    -2.0691e-07      0.005 (TRAH MIcro)
    9     dE    -2.077636e-07     2.405383e-05    -2.0776e-07      0.005 (TRAH MIcro)
    9     dE    -2.085891e-07     2.092543e-05    -2.0858e-07      0.005 (TRAH MIcro)
    9     dE    -2.092980e-07     1.771630e-05    -2.0929e-07      0.005 (TRAH MIcro)
   10      -9711.930672353581     1.987809e-05                           (NR   MAcro)
   10     dE    -4.391338e-10     1.404426e-05                           (NR   MIcro)
   10     dE    -9.207090e-10     2.122683e-05                           (NR   MIcro)
   10     dE    -1.720750e-09     2.312831e-05                           (NR   MIcro)
   10     dE    -2.934673e-09     3.183563e-05                           (NR   MIcro)
   10     dE    -5.258400e-09     4.358578e-05                           (NR   MIcro)
   10     dE    -9.235053e-09     6.111348e-05                           (NR   MIcro)
   10     dE    -1.687055e-08     7.996604e-05                           (NR   MIcro)
   10     dE    -2.406105e-08     6.429919e-05                           (NR   MIcro)
   10     dE    -3.012149e-08     7.373859e-05                           (NR   MIcro)
   10     dE    -3.454628e-08     4.685060e-05                           (NR   MIcro)
   10     dE    -3.656505e-08     2.937215e-05                           (NR   MIcro)
   10     dE    -3.784503e-08     3.395570e-05                           (NR   MIcro)
   10     dE    -3.914109e-08     2.104779e-05                           (NR   MIcro)
   10     dE    -3.948785e-08     1.083349e-05                           (NR   MIcro)
   10     dE    -3.963079e-08     8.467863e-06                           (NR   MIcro)
   10     dE    -3.972485e-08     7.437287e-06                           (NR   MIcro)
   10     dE    -3.980001e-08     6.642737e-06                           (NR   MIcro)
   10     dE    -3.985874e-08     6.154046e-06                           (NR   MIcro)
   10     dE    -3.991826e-08     6.946808e-06                           (NR   MIcro)
   10     dE    -4.003154e-08     1.070370e-05                           (NR   MIcro)
   10     dE    -4.033458e-08     1.851544e-05                           (NR   MIcro)
   10     dE    -4.112535e-08     2.892182e-05                           (NR   MIcro)
   10     dE    -4.254075e-08     3.148771e-05                           (NR   MIcro)
   10     dE    -4.352296e-08     1.923094e-05                           (NR   MIcro)
   11      -9711.930672384102     2.016913e-05                           (NR   MAcro)
   11     dE    -2.445070e-10     9.596032e-06                           (NR   MIcro)
   11     dE    -3.766433e-10     8.185895e-06                           (NR   MIcro)
   11     dE    -4.436774e-10     6.276303e-06                           (NR   MIcro)
   11     dE    -4.822051e-10     3.714608e-06                           (NR   MIcro)
   11     dE    -4.937419e-10     2.302520e-06                           (NR   MIcro)
   11     dE    -4.980344e-10     1.325562e-06                           (NR   MIcro)
   11     dE    -4.997702e-10     9.194898e-07                           (NR   MIcro)
   12      -9711.930672384646     9.222797e-07                           (NR   MAcro)

               *****************************************************
               *                     SUCCESS                       *
               *           SCF CONVERGED AFTER 163 CYCLES          *
               *****************************************************

Recomputing exchange energy using gridx3       ... done (   19.358 sec)
Old exchange energy                            :   -196.941341152 Eh
New exchange energy                            :   -196.941336159 Eh
Exchange energy change after final integration :      0.000004992 Eh
Total energy after final integration           :  -9711.930667392 Eh
Warning: op=1 Small HOMO/LUMO gap (   0.053) - skipping pre-diagonalization
             **** ENERGY FILE WAS UPDATED (TPA-OMe.en.tmp) ****

----------------
TOTAL SCF ENERGY
----------------

Total Energy       :      -9711.93066739224196 Eh         -264275.06894 eV

Components:
Nuclear Repulsion  :      15155.48915882823530 Eh          412401.82612 eV
Electronic Energy  :     -24867.41983121288285 Eh         -676676.89520 eV
One Electron Energy:     -43585.61593101725884 Eh        -1186024.90582 eV
Two Electron Energy:      18718.19609980437599 Eh          509348.01063 eV

Virial components:
Potential Energy   :     -19394.64643604921002 Eh         -527755.16008 eV
Kinetic Energy     :       9682.71576865696625 Eh          263480.09113 eV
Virial Ratio       :          2.00301722155574

DFT components:
N(Alpha)           :      328.000066948394 electrons
N(Beta)            :      328.000099311723 electrons
N(Total)           :      656.000166260116 electrons
E(XC)              :     -591.440253230600 Eh       

---------------
SCF CONVERGENCE
---------------

  Last Energy change         ...   -5.4388e-10  Tolerance :   1.0000e-08
  Last MAX-Density change    ...    6.5684e-03  Tolerance :   1.0000e-07
  Last RMS-Density change    ...    9.0703e-05  Tolerance :   5.0000e-09
  Last DIIS Error            ...    2.0270e-03  Tolerance :   5.0000e-07
  Last Orbital Gradient      ...    9.2228e-07  Tolerance :   1.0000e-05
  Last Orbital Rotation      ...    6.9412e-05  Tolerance :   1.0000e-05


----------------------
UHF SPIN CONTAMINATION
----------------------

Warning: in a DFT calculation there is little theoretical justification to 
         calculate <S**2> as in Hartree-Fock theory. We will do it anyways
         but you should keep in mind that the values have only limited relevance

Expectation value of <S**2>     :     2.084669
Ideal value S*(S+1) for S=0.0   :     0.000000
Deviation                       :     2.084669


                    ********************************
                    * MULLIKEN POPULATION ANALYSIS *
                    ********************************

--------------------------------------------
MULLIKEN ATOMIC CHARGES AND SPIN POPULATIONS
--------------------------------------------
   0 C :   -0.117449   -0.030401
   1 C :    0.073622    0.034339
   2 C :   -0.130894   -0.030697
   3 C :   -0.126265    0.018069
   4 C :    0.243945   -0.029199
   5 C :   -0.120440    0.018977
   6 N :   -0.561004   -0.008188
   7 C :    0.244698   -0.029359
   8 C :    0.173870    0.002418
   9 C :   -0.090540   -0.002823
  10 C :   -0.133454    0.001911
  11 C :    0.331629   -0.002583
  12 C :   -0.161992    0.001844
  13 C :   -0.097464   -0.003256
  14 C :   -0.127287    0.018265
  15 C :   -0.130611   -0.031204
  16 C :    0.074054    0.034929
  17 C :   -0.116540   -0.030357
  18 C :   -0.120929    0.019165
  19 C :    0.190586   -0.110336
  20 N :   -0.371448    0.056660
  21 C :    0.027478   -0.117479
  22 C :    0.120966    0.172684
  23 C :   -0.106743   -0.121481
  24 C :   -0.082596    0.078200
  25 C :   -0.105056   -0.820678
  26 C :    0.132190    0.154487
  27 C :    0.136737    0.155707
  28 C :   -0.125025   -0.114886
  29 C :   -0.045406    0.069548
  30 C :   -0.094648   -0.099737
  31 C :   -0.044734    0.069478
  32 C :   -0.123913   -0.114919
  33 C :   -0.124890   -0.114072
  34 C :   -0.045771    0.068878
  35 C :   -0.094991   -0.098762
  36 C :   -0.046032    0.068952
  37 C :   -0.126108   -0.114189
  38 Cl:    0.021335   -0.002941
  39 Cl:    0.014847   -0.002281
  40 Cl:    0.017245   -0.002851
  41 Cl:    0.013825   -0.004665
  42 Cl:    0.018669   -0.002266
  43 Cl:    0.017235   -0.002764
  44 Cl:    0.006571   -0.005458
  45 Cl:    0.005709   -0.005328
  46 C :    0.190353   -0.112271
  47 N :   -0.372224    0.057833
  48 C :    0.028262   -0.118318
  49 C :    0.119147    0.172358
  50 C :   -0.106404   -0.123257
  51 C :   -0.082230    0.079417
  52 C :   -0.083761   -0.809058
  53 C :    0.137579    0.158315
  54 C :    0.048661    0.075712
  55 C :    0.029086    0.917800
  56 C :   -0.107028   -0.020646
  57 C :   -0.082434   -0.027196
  58 C :   -0.048094    0.008461
  59 C :   -0.106866   -0.050244
  60 C :   -0.136903   -0.119593
  61 C :   -0.045875    0.072847
  62 C :   -0.095552   -0.103828
  63 C :   -0.047518    0.072554
  64 C :   -0.129807   -0.119052
  65 Cl:    0.020077   -0.002952
  66 Cl:    0.010873    0.016290
  67 Cl:    0.000490    0.999885
  68 Cl:    0.008863   -0.004616
  69 Cl:    0.018706   -0.002427
  70 Cl:    0.019695   -0.003302
  71 Cl:    0.003335    0.008990
  72 Cl:    0.006214   -0.005499
  73 O :   -0.487189   -0.000368
  74 C :   -0.079593    0.000040
  75 H :    0.132702    0.001128
  76 H :    0.092040    0.001311
  77 H :    0.108903   -0.000630
  78 H :    0.112857   -0.000663
  79 H :    0.109563    0.000132
  80 H :    0.107678   -0.000088
  81 H :    0.098488   -0.000083
  82 H :    0.108447    0.000152
  83 H :    0.108427   -0.000636
  84 H :    0.092095    0.001334
  85 H :    0.131948    0.000878
  86 H :    0.113255   -0.000676
  87 H :    0.125727   -0.003691
  88 H :    0.145466   -0.003108
  89 H :    0.145621   -0.003165
  90 H :    0.145122   -0.003138
  91 H :    0.145526   -0.003102
  92 H :    0.125559   -0.003745
  93 H :    0.136484    0.016268
  94 H :    0.145969   -0.001100
  95 H :    0.145725   -0.003288
  96 H :    0.145952   -0.003244
  97 H :    0.129596    0.000001
  98 H :    0.111943   -0.000038
  99 H :    0.112061   -0.000036
Sum of atomic charges         :    0.0000000
Sum of atomic spin populations:   -0.0000000

-----------------------------------------------------
MULLIKEN REDUCED ORBITAL CHARGES AND SPIN POPULATIONS
-----------------------------------------------------
CHARGE
  0 C s       :     3.186422  s :     3.186422
      pz      :     0.972981  p :     2.895753
      px      :     0.936349
      py      :     0.986423
      dz2     :     0.003997  d :     0.035274
      dxz     :     0.007590
      dyz     :     0.005435
      dx2y2   :     0.009533
      dxy     :     0.008719

  1 C s       :     3.134043  s :     3.134043
      pz      :     0.967496  p :     2.753851
      px      :     0.883224
      py      :     0.903131
      dz2     :     0.006256  d :     0.038484
      dxz     :     0.006554
      dyz     :     0.005892
      dx2y2   :     0.009500
      dxy     :     0.010282

  2 C s       :     3.170972  s :     3.170972
      pz      :     0.980081  p :     2.924208
      px      :     0.976044
      py      :     0.968083
      dz2     :     0.003772  d :     0.035713
      dxz     :     0.007568
      dyz     :     0.005880
      dx2y2   :     0.009443
      dxy     :     0.009050

  3 C s       :     3.160357  s :     3.160357
      pz      :     0.978338  p :     2.932235
      px      :     0.952192
      py      :     1.001706
      dz2     :     0.003800  d :     0.033673
      dxz     :     0.007494
      dyz     :     0.005159
      dx2y2   :     0.009091
      dxy     :     0.008129

  4 C s       :     3.083958  s :     3.083958
      pz      :     0.907143  p :     2.614381
      px      :     0.794453
      py      :     0.912784
      dz2     :     0.008080  d :     0.057717
      dxz     :     0.014624
      dyz     :     0.008424
      dx2y2   :     0.012136
      dxy     :     0.014452

  5 C s       :     3.162333  s :     3.162333
      pz      :     0.971077  p :     2.924341
      px      :     0.986071
      py      :     0.967193
      dz2     :     0.003648  d :     0.033765
      dxz     :     0.007185
      dyz     :     0.005713
      dx2y2   :     0.009140
      dxy     :     0.008079

  6 N s       :     3.578509  s :     3.578509
      pz      :     1.706196  p :     3.943806
      px      :     1.118287
      py      :     1.119323
      dz2     :     0.003285  d :     0.038689
      dxz     :     0.005377
      dyz     :     0.004999
      dx2y2   :     0.012316
      dxy     :     0.012713

  7 C s       :     3.083212  s :     3.083212
      pz      :     0.909802  p :     2.614409
      px      :     0.793015
      py      :     0.911591
      dz2     :     0.007845  d :     0.057681
      dxz     :     0.014437
      dyz     :     0.008377
      dx2y2   :     0.012382
      dxy     :     0.014641

  8 C s       :     3.090296  s :     3.090296
      pz      :     0.919661  p :     2.680209
      px      :     1.016677
      py      :     0.743871
      dz2     :     0.009908  d :     0.055626
      dxz     :     0.005437
      dyz     :     0.018085
      dx2y2   :     0.013524
      dxy     :     0.008672

  9 C s       :     3.166834  s :     3.166834
      pz      :     0.954499  p :     2.888721
      px      :     0.989545
      py      :     0.944678
      dz2     :     0.005231  d :     0.034985
      dxz     :     0.004685
      dyz     :     0.010049
      dx2y2   :     0.006357
      dxy     :     0.008661

 10 C s       :     3.169995  s :     3.169995
      pz      :     0.985540  p :     2.930360
      px      :     0.996234
      py      :     0.948586
      dz2     :     0.004674  d :     0.033100
      dxz     :     0.004405
      dyz     :     0.009592
      dx2y2   :     0.006003
      dxy     :     0.008425

 11 C s       :     3.063852  s :     3.063852
      pz      :     0.932098  p :     2.533344
      px      :     0.935490
      py      :     0.665755
      dz2     :     0.011549  d :     0.071175
      dxz     :     0.005522
      dyz     :     0.018585
      dx2y2   :     0.017696
      dxy     :     0.017823

 12 C s       :     3.146840  s :     3.146840
      pz      :     0.992027  p :     2.981938
      px      :     1.014814
      py      :     0.975097
      dz2     :     0.004872  d :     0.033215
      dxz     :     0.004642
      dyz     :     0.009328
      dx2y2   :     0.006110
      dxy     :     0.008261

 13 C s       :     3.167885  s :     3.167885
      pz      :     0.959031  p :     2.894611
      px      :     0.993782
      py      :     0.941799
      dz2     :     0.005237  d :     0.034968
      dxz     :     0.004690
      dyz     :     0.009986
      dx2y2   :     0.006476
      dxy     :     0.008578

 14 C s       :     3.159965  s :     3.159965
      pz      :     0.980380  p :     2.933659
      px      :     0.952540
      py      :     1.000739
      dz2     :     0.003734  d :     0.033663
      dxz     :     0.007361
      dyz     :     0.004980
      dx2y2   :     0.009291
      dxy     :     0.008297

 15 C s       :     3.170933  s :     3.170933
      pz      :     0.980919  p :     2.923967
      px      :     0.975826
      py      :     0.967222
      dz2     :     0.003593  d :     0.035711
      dxz     :     0.007293
      dyz     :     0.005936
      dx2y2   :     0.009529
      dxy     :     0.009360

 16 C s       :     3.134034  s :     3.134034
      pz      :     0.972549  p :     2.753410
      px      :     0.883240
      py      :     0.897621
      dz2     :     0.006025  d :     0.038502
      dxz     :     0.006383
      dyz     :     0.005912
      dx2y2   :     0.009720
      dxy     :     0.010461

 17 C s       :     3.186559  s :     3.186559
      pz      :     0.969770  p :     2.894712
      px      :     0.935952
      py      :     0.988990
      dz2     :     0.003921  d :     0.035269
      dxz     :     0.007493
      dyz     :     0.005271
      dx2y2   :     0.009726
      dxy     :     0.008857

 18 C s       :     3.162543  s :     3.162543
      pz      :     0.973947  p :     2.924617
      px      :     0.987074
      py      :     0.963596
      dz2     :     0.003504  d :     0.033770
      dxz     :     0.006967
      dyz     :     0.005698
      dx2y2   :     0.009282
      dxy     :     0.008319

 19 C s       :     3.076912  s :     3.076912
      pz      :     0.870817  p :     2.671921
      px      :     0.968004
      py      :     0.833100
      dz2     :     0.009146  d :     0.060581
      dxz     :     0.010623
      dyz     :     0.010549
      dx2y2   :     0.014158
      dxy     :     0.016105

 20 N s       :     3.652568  s :     3.652568
      pz      :     1.263230  p :     3.680720
      px      :     1.323364
      py      :     1.094126
      dz2     :     0.006420  d :     0.038160
      dxz     :     0.006152
      dyz     :     0.007525
      dx2y2   :     0.009924
      dxy     :     0.008139

 21 C s       :     3.128011  s :     3.128011
      pz      :     0.920508  p :     2.774184
      px      :     0.981403
      py      :     0.872272
      dz2     :     0.009234  d :     0.070327
      dxz     :     0.013753
      dyz     :     0.011726
      dx2y2   :     0.020147
      dxy     :     0.015467

 22 C s       :     3.128337  s :     3.128337
      pz      :     0.958434  p :     2.711286
      px      :     0.862828
      py      :     0.890024
      dz2     :     0.005265  d :     0.039410
      dxz     :     0.008765
      dyz     :     0.006747
      dx2y2   :     0.010048
      dxy     :     0.008585

 23 C s       :     3.192955  s :     3.192955
      pz      :     0.935089  p :     2.863639
      px      :     0.925525
      py      :     1.003024
      dz2     :     0.007787  d :     0.050150
      dxz     :     0.010894
      dyz     :     0.007830
      dx2y2   :     0.012147
      dxy     :     0.011491

 24 C s       :     3.136502  s :     3.136502
      pz      :     1.009867  p :     2.913603
      px      :     0.913668
      py      :     0.990068
      dz2     :     0.003801  d :     0.032491
      dxz     :     0.006474
      dyz     :     0.005537
      dx2y2   :     0.008402
      dxy     :     0.008278

 25 C s       :     3.159283  s :     3.159283
      pz      :     1.000929  p :     2.906423
      px      :     0.953402
      py      :     0.952093
      dz2     :     0.003578  d :     0.039350
      dxz     :     0.004850
      dyz     :     0.004329
      dx2y2   :     0.012934
      dxy     :     0.013660

 26 C s       :     3.127780  s :     3.127780
      pz      :     0.900809  p :     2.699965
      px      :     0.872958
      py      :     0.926198
      dz2     :     0.007169  d :     0.040065
      dxz     :     0.010892
      dyz     :     0.006332
      dx2y2   :     0.008015
      dxy     :     0.007657

 27 C s       :     3.125965  s :     3.125965
      pz      :     0.889234  p :     2.697243
      px      :     0.938205
      py      :     0.869805
      dz2     :     0.007277  d :     0.040055
      dxz     :     0.005235
      dyz     :     0.012619
      dx2y2   :     0.007568
      dxy     :     0.007356

 28 C s       :     3.188866  s :     3.188866
      pz      :     0.893829  p :     2.887115
      px      :     0.984713
      py      :     1.008574
      dz2     :     0.010791  d :     0.049044
      dxz     :     0.007561
      dyz     :     0.012874
      dx2y2   :     0.008266
      dxy     :     0.009552

 29 C s       :     3.141801  s :     3.141801
      pz      :     0.967836  p :     2.870056
      px      :     0.982420
      py      :     0.919800
      dz2     :     0.006450  d :     0.033549
      dxz     :     0.004866
      dyz     :     0.008821
      dx2y2   :     0.006542
      dxy     :     0.006869

 30 C s       :     3.181989  s :     3.181989
      pz      :     1.018820  p :     2.862362
      px      :     1.022514
      py      :     0.821027
      dz2     :     0.010499  d :     0.050298
      dxz     :     0.005835
      dyz     :     0.012628
      dx2y2   :     0.011414
      dxy     :     0.009920

 31 C s       :     3.141471  s :     3.141471
      pz      :     0.990904  p :     2.869711
      px      :     0.990517
      py      :     0.888290
      dz2     :     0.005956  d :     0.033552
      dxz     :     0.004660
      dyz     :     0.009055
      dx2y2   :     0.006442
      dxy     :     0.007439

 32 C s       :     3.188723  s :     3.188723
      pz      :     0.924669  p :     2.886191
      px      :     0.993931
      py      :     0.967591
      dz2     :     0.010272  d :     0.048999
      dxz     :     0.007047
      dyz     :     0.013504
      dx2y2   :     0.008371
      dxy     :     0.009805

 33 C s       :     3.189301  s :     3.189301
      pz      :     0.939750  p :     2.886572
      px      :     0.929424
      py      :     1.017399
      dz2     :     0.009753  d :     0.049017
      dxz     :     0.013009
      dyz     :     0.007040
      dx2y2   :     0.009737
      dxy     :     0.009477

 34 C s       :     3.141824  s :     3.141824
      pz      :     0.994775  p :     2.870399
      px      :     0.878704
      py      :     0.996920
      dz2     :     0.005466  d :     0.033547
      dxz     :     0.008392
      dyz     :     0.005217
      dx2y2   :     0.006724
      dxy     :     0.007748

 35 C s       :     3.181981  s :     3.181981
      pz      :     1.017395  p :     2.862728
      px      :     0.858256
      py      :     0.987077
      dz2     :     0.010120  d :     0.050282
      dxz     :     0.011515
      dyz     :     0.006465
      dx2y2   :     0.010810
      dxy     :     0.011374

 36 C s       :     3.142017  s :     3.142017
      pz      :     0.966254  p :     2.870467
      px      :     0.956411
      py      :     0.947802
      dz2     :     0.006191  d :     0.033548
      dxz     :     0.008209
      dyz     :     0.005214
      dx2y2   :     0.007612
      dxy     :     0.006323

 37 C s       :     3.189281  s :     3.189281
      pz      :     0.899447  p :     2.887777
      px      :     1.026526
      py      :     0.961803
      dz2     :     0.010288  d :     0.049051
      dxz     :     0.011535
      dyz     :     0.008523
      dx2y2   :     0.009314
      dxy     :     0.009392

 38 Cls       :     5.926163  s :     5.926163
      pz      :     3.650820  p :    11.022347
      px      :     3.513641
      py      :     3.857886
      dz2     :     0.003941  d :     0.030155
      dxz     :     0.012356
      dyz     :     0.003174
      dx2y2   :     0.004877
      dxy     :     0.005809

 39 Cls       :     5.926642  s :     5.926642
      pz      :     3.518724  p :    11.028280
      px      :     3.793101
      py      :     3.716455
      dz2     :     0.005494  d :     0.030232
      dxz     :     0.006969
      dyz     :     0.010429
      dx2y2   :     0.002339
      dxy     :     0.005001

 40 Cls       :     5.926455  s :     5.926455
      pz      :     3.403096  p :    11.026001
      px      :     3.752680
      py      :     3.870225
      dz2     :     0.009013  d :     0.030300
      dxz     :     0.010553
      dyz     :     0.005985
      dx2y2   :     0.002119
      dxy     :     0.002630

 41 Cls       :     5.927229  s :     5.927229
      pz      :     3.615207  p :    11.030933
      px      :     3.939477
      py      :     3.476249
      dz2     :     0.004035  d :     0.028013
      dxz     :     0.001433
      dyz     :     0.013811
      dx2y2   :     0.006593
      dxy     :     0.002140

 42 Cls       :     5.927299  s :     5.927299
      pz      :     3.572491  p :    11.023701
      px      :     3.558585
      py      :     3.892624
      dz2     :     0.004563  d :     0.030331
      dxz     :     0.013838
      dyz     :     0.003216
      dx2y2   :     0.004245
      dxy     :     0.004469

 43 Cls       :     5.926708  s :     5.926708
      pz      :     3.425026  p :    11.025746
      px      :     3.938695
      py      :     3.662026
      dz2     :     0.008494  d :     0.030311
      dxz     :     0.002820
      dyz     :     0.013776
      dx2y2   :     0.003653
      dxy     :     0.001569

 44 Cls       :     5.925639  s :     5.925639
      pz      :     3.935205  p :    11.037861
      px      :     3.935254
      py      :     3.167402
      dz2     :     0.004843  d :     0.029928
      dxz     :     0.000141
      dyz     :     0.005095
      dx2y2   :     0.014220
      dxy     :     0.005629

 45 Cls       :     5.925695  s :     5.925695
      pz      :     3.926762  p :    11.038695
      px      :     3.312944
      py      :     3.798990
      dz2     :     0.004680  d :     0.029900
      dxz     :     0.004803
      dyz     :     0.001000
      dx2y2   :     0.008642
      dxy     :     0.010775

 46 C s       :     3.076499  s :     3.076499
      pz      :     0.872627  p :     2.672606
      px      :     0.968279
      py      :     0.831700
      dz2     :     0.008987  d :     0.060541
      dxz     :     0.010407
      dyz     :     0.010605
      dx2y2   :     0.014291
      dxy     :     0.016251

 47 N s       :     3.652019  s :     3.652019
      pz      :     1.265251  p :     3.682046
      px      :     1.320110
      py      :     1.096685
      dz2     :     0.006314  d :     0.038159
      dxz     :     0.006148
      dyz     :     0.007573
      dx2y2   :     0.010050
      dxy     :     0.008075

 48 C s       :     3.127371  s :     3.127371
      pz      :     0.923481  p :     2.774095
      px      :     0.981069
      py      :     0.869544
      dz2     :     0.009063  d :     0.070272
      dxz     :     0.013642
      dyz     :     0.011658
      dx2y2   :     0.020338
      dxy     :     0.015572

 49 C s       :     3.128788  s :     3.128788
      pz      :     0.960453  p :     2.712563
      px      :     0.864759
      py      :     0.887351
      dz2     :     0.005196  d :     0.039503
      dxz     :     0.008797
      dyz     :     0.006703
      dx2y2   :     0.010151
      dxy     :     0.008655

 50 C s       :     3.192491  s :     3.192491
      pz      :     0.935890  p :     2.863799
      px      :     0.926585
      py      :     1.001324
      dz2     :     0.007683  d :     0.050114
      dxz     :     0.010765
      dyz     :     0.007910
      dx2y2   :     0.012170
      dxy     :     0.011586

 51 C s       :     3.136452  s :     3.136452
      pz      :     1.008762  p :     2.913263
      px      :     0.914422
      py      :     0.990079
      dz2     :     0.003782  d :     0.032515
      dxz     :     0.006425
      dyz     :     0.005528
      dx2y2   :     0.008471
      dxy     :     0.008308

 52 C s       :     3.162289  s :     3.162289
      pz      :     0.999801  p :     2.882318
      px      :     0.943180
      py      :     0.939337
      dz2     :     0.003512  d :     0.039154
      dxz     :     0.004832
      dyz     :     0.004387
      dx2y2   :     0.012680
      dxy     :     0.013743

 53 C s       :     3.121901  s :     3.121901
      pz      :     0.894100  p :     2.700429
      px      :     0.874718
      py      :     0.931611
      dz2     :     0.007225  d :     0.040091
      dxz     :     0.011085
      dyz     :     0.006269
      dx2y2   :     0.007917
      dxy     :     0.007595

 54 C s       :     3.146479  s :     3.146479
      pz      :     0.914219  p :     2.763154
      px      :     0.966441
      py      :     0.882495
      dz2     :     0.008104  d :     0.041706
      dxz     :     0.005765
      dyz     :     0.012145
      dx2y2   :     0.008544
      dxy     :     0.007148

 55 C s       :     3.257082  s :     3.257082
      pz      :     0.891269  p :     2.682131
      px      :     0.914558
      py      :     0.876304
      dz2     :     0.005319  d :     0.031701
      dxz     :     0.003146
      dyz     :     0.009016
      dx2y2   :     0.006579
      dxy     :     0.007641

 56 C s       :     3.160942  s :     3.160942
      pz      :     0.970686  p :     2.911449
      px      :     0.998550
      py      :     0.942212
      dz2     :     0.006175  d :     0.034637
      dxz     :     0.004798
      dyz     :     0.010099
      dx2y2   :     0.006224
      dxy     :     0.007341

 57 C s       :     3.172524  s :     3.172524
      pz      :     1.014017  p :     2.859291
      px      :     1.022325
      py      :     0.822949
      dz2     :     0.010569  d :     0.050619
      dxz     :     0.005856
      dyz     :     0.012714
      dx2y2   :     0.011513
      dxy     :     0.009968

 58 C s       :     3.137247  s :     3.137247
      pz      :     0.995570  p :     2.877412
      px      :     0.995983
      py      :     0.885859
      dz2     :     0.005856  d :     0.033435
      dxz     :     0.004638
      dyz     :     0.009012
      dx2y2   :     0.006450
      dxy     :     0.007479

 59 C s       :     3.178687  s :     3.178687
      pz      :     0.918645  p :     2.879068
      px      :     0.988924
      py      :     0.971498
      dz2     :     0.010181  d :     0.049111
      dxz     :     0.007125
      dyz     :     0.013525
      dx2y2   :     0.008453
      dxy     :     0.009827

 60 C s       :     3.191920  s :     3.191920
      pz      :     0.938330  p :     2.895912
      px      :     0.932342
      py      :     1.025239
      dz2     :     0.009906  d :     0.049071
      dxz     :     0.013146
      dyz     :     0.007021
      dx2y2   :     0.009662
      dxy     :     0.009336

 61 C s       :     3.141982  s :     3.141982
      pz      :     0.995465  p :     2.870360
      px      :     0.879041
      py      :     0.995853
      dz2     :     0.005590  d :     0.033534
      dxz     :     0.008425
      dyz     :     0.005211
      dx2y2   :     0.006646
      dxy     :     0.007663

 62 C s       :     3.182078  s :     3.182078
      pz      :     1.017266  p :     2.863191
      px      :     0.858746
      py      :     0.987180
      dz2     :     0.010215  d :     0.050283
      dxz     :     0.011613
      dyz     :     0.006520
      dx2y2   :     0.010687
      dxy     :     0.011248

 63 C s       :     3.142667  s :     3.142667
      pz      :     0.965389  p :     2.871298
      px      :     0.956580
      py      :     0.949329
      dz2     :     0.006296  d :     0.033552
      dxz     :     0.008281
      dyz     :     0.005208
      dx2y2   :     0.007537
      dxy     :     0.006231

 64 C s       :     3.191384  s :     3.191384
      pz      :     0.899065  p :     2.889320
      px      :     1.026331
      py      :     0.963924
      dz2     :     0.010472  d :     0.049104
      dxz     :     0.011648
      dyz     :     0.008522
      dx2y2   :     0.009204
      dxy     :     0.009259

 65 Cls       :     5.926074  s :     5.926074
      pz      :     3.651343  p :    11.023702
      px      :     3.519774
      py      :     3.852585
      dz2     :     0.003973  d :     0.030147
      dxz     :     0.012196
      dyz     :     0.003305
      dx2y2   :     0.004726
      dxy     :     0.005946

 66 Cls       :     5.926547  s :     5.926547
      pz      :     3.532516  p :    11.032380
      px      :     3.789512
      py      :     3.710352
      dz2     :     0.005251  d :     0.030199
      dxz     :     0.006896
      dyz     :     0.010408
      dx2y2   :     0.002441
      dxy     :     0.005202

 67 Cls       :     5.999072  s :     5.999072
      pz      :     3.997317  p :    10.999475
      px      :     3.007470
      py      :     3.994689
      dz2     :     0.000238  d :     0.000963
      dxz     :     0.000008
      dyz     :     0.000000
      dx2y2   :     0.000703
      dxy     :     0.000014

 68 Cls       :     5.927344  s :     5.927344
      pz      :     3.628635  p :    11.035849
      px      :     3.941645
      py      :     3.465569
      dz2     :     0.003871  d :     0.027944
      dxz     :     0.001354
      dyz     :     0.013656
      dx2y2   :     0.006885
      dxy     :     0.002179

 69 Cls       :     5.927213  s :     5.927213
      pz      :     3.563902  p :    11.023721
      px      :     3.561951
      py      :     3.897868
      dz2     :     0.004661  d :     0.030359
      dxz     :     0.013976
      dyz     :     0.003173
      dx2y2   :     0.004216
      dxy     :     0.004332

 70 Cls       :     5.926812  s :     5.926812
      pz      :     3.412602  p :    11.023190
      px      :     3.938447
      py      :     3.672141
      dz2     :     0.008754  d :     0.030303
      dxz     :     0.002889
      dyz     :     0.013658
      dx2y2   :     0.003476
      dxy     :     0.001527

 71 Cls       :     5.925341  s :     5.925341
      pz      :     3.932344  p :    11.041412
      px      :     3.936051
      py      :     3.173017
      dz2     :     0.004765  d :     0.029912
      dxz     :     0.000158
      dyz     :     0.005285
      dx2y2   :     0.014087
      dxy     :     0.005616

 72 Cls       :     5.925750  s :     5.925750
      pz      :     3.926636  p :    11.038124
      px      :     3.313149
      py      :     3.798340
      dz2     :     0.004680  d :     0.029911
      dxz     :     0.004783
      dyz     :     0.001002
      dx2y2   :     0.008646
      dxy     :     0.010801

 73 O s       :     3.849889  s :     3.849889
      pz      :     1.640221  p :     4.608108
      px      :     1.692294
      py      :     1.275593
      dz2     :     0.004962  d :     0.029193
      dxz     :     0.004738
      dyz     :     0.006484
      dx2y2   :     0.007104
      dxy     :     0.005905

 74 C s       :     3.180995  s :     3.180995
      pz      :     0.919314  p :     2.841913
      px      :     0.960201
      py      :     0.962398
      dz2     :     0.016237  d :     0.056685
      dxz     :     0.009030
      dyz     :     0.009527
      dx2y2   :     0.014398
      dxy     :     0.007493

 75 H s       :     0.854860  s :     0.854860
      pz      :     0.003759  p :     0.012438
      px      :     0.002124
      py      :     0.006554

 76 H s       :     0.895852  s :     0.895852
      pz      :     0.004114  p :     0.012108
      px      :     0.004998
      py      :     0.002996

 77 H s       :     0.878757  s :     0.878757
      pz      :     0.003941  p :     0.012339
      px      :     0.001937
      py      :     0.006462

 78 H s       :     0.874887  s :     0.874887
      pz      :     0.004112  p :     0.012256
      px      :     0.005334
      py      :     0.002810

 79 H s       :     0.878296  s :     0.878296
      pz      :     0.004749  p :     0.012141
      px      :     0.004031
      py      :     0.003361

 80 H s       :     0.880126  s :     0.880126
      pz      :     0.004792  p :     0.012196
      px      :     0.004025
      py      :     0.003379

 81 H s       :     0.889008  s :     0.889008
      pz      :     0.004972  p :     0.012504
      px      :     0.004351
      py      :     0.003180

 82 H s       :     0.879403  s :     0.879403
      pz      :     0.004830  p :     0.012150
      px      :     0.004015
      py      :     0.003306

 83 H s       :     0.879223  s :     0.879223
      pz      :     0.003799  p :     0.012350
      px      :     0.001939
      py      :     0.006612

 84 H s       :     0.895797  s :     0.895797
      pz      :     0.004015  p :     0.012108
      px      :     0.005004
      py      :     0.003089

 85 H s       :     0.855628  s :     0.855628
      pz      :     0.003603  p :     0.012424
      px      :     0.002130
      py      :     0.006691

 86 H s       :     0.874489  s :     0.874489
      pz      :     0.004050  p :     0.012256
      px      :     0.005320
      py      :     0.002886

 87 H s       :     0.861826  s :     0.861826
      pz      :     0.004356  p :     0.012447
      px      :     0.001863
      py      :     0.006228

 88 H s       :     0.842114  s :     0.842114
      pz      :     0.004874  p :     0.012421
      px      :     0.003553
      py      :     0.003994

 89 H s       :     0.841956  s :     0.841956
      pz      :     0.005895  p :     0.012423
      px      :     0.003986
      py      :     0.002541

 90 H s       :     0.842460  s :     0.842460
      pz      :     0.005796  p :     0.012418
      px      :     0.001780
      py      :     0.004842

 91 H s       :     0.842055  s :     0.842055
      pz      :     0.004462  p :     0.012419
      px      :     0.005465
      py      :     0.002492

 92 H s       :     0.861996  s :     0.861996
      pz      :     0.004278  p :     0.012445
      px      :     0.001862
      py      :     0.006304

 93 H s       :     0.851222  s :     0.851222
      pz      :     0.004715  p :     0.012294
      px      :     0.003586
      py      :     0.003993

 94 H s       :     0.841598  s :     0.841598
      pz      :     0.005929  p :     0.012434
      px      :     0.004008
      py      :     0.002496

 95 H s       :     0.841855  s :     0.841855
      pz      :     0.005865  p :     0.012421
      px      :     0.001786
      py      :     0.004770

 96 H s       :     0.841635  s :     0.841635
      pz      :     0.004514  p :     0.012414
      px      :     0.005436
      py      :     0.002464

 97 H s       :     0.859780  s :     0.859780
      pz      :     0.001977  p :     0.010624
      px      :     0.002048
      py      :     0.006599

 98 H s       :     0.877218  s :     0.877218
      pz      :     0.001862  p :     0.010838
      px      :     0.006992
      py      :     0.001984

 99 H s       :     0.877101  s :     0.877101
      pz      :     0.006602  p :     0.010839
      px      :     0.002276
      py      :     0.001961


SPIN
  0 C s       :    -0.003586  s :    -0.003586
      pz      :    -0.014548  p :    -0.027060
      px      :    -0.003940
      py      :    -0.008572
      dz2     :     0.000034  d :     0.000245
      dxz     :     0.000084
      dyz     :     0.000055
      dx2y2   :     0.000030
      dxy     :     0.000041

  1 C s       :     0.004973  s :     0.004973
      pz      :     0.014310  p :     0.030214
      px      :     0.006956
      py      :     0.008948
      dz2     :    -0.000078  d :    -0.000848
      dxz     :    -0.000345
      dyz     :    -0.000130
      dx2y2   :    -0.000212
      dxy     :    -0.000083

  2 C s       :    -0.003691  s :    -0.003691
      pz      :    -0.015139  p :    -0.027254
      px      :    -0.004161
      py      :    -0.007953
      dz2     :     0.000030  d :     0.000248
      dxz     :     0.000071
      dyz     :     0.000070
      dx2y2   :     0.000056
      dxy     :     0.000020

  3 C s       :     0.002620  s :     0.002620
      pz      :     0.008661  p :     0.015791
      px      :     0.002617
      py      :     0.004514
      dz2     :    -0.000073  d :    -0.000342
      dxz     :    -0.000118
      dyz     :    -0.000032
      dx2y2   :    -0.000033
      dxy     :    -0.000087

  4 C s       :    -0.003039  s :    -0.003039
      pz      :    -0.015095  p :    -0.026239
      px      :    -0.003416
      py      :    -0.007728
      dz2     :     0.000076  d :     0.000079
      dxz     :    -0.000056
      dyz     :     0.000015
      dx2y2   :     0.000019
      dxy     :     0.000025

  5 C s       :     0.002700  s :     0.002700
      pz      :     0.009259  p :     0.016621
      px      :     0.002917
      py      :     0.004445
      dz2     :    -0.000059  d :    -0.000344
      dxz     :    -0.000087
      dyz     :    -0.000067
      dx2y2   :    -0.000121
      dxy     :    -0.000010

  6 N s       :    -0.000011  s :    -0.000011
      pz      :    -0.009267  p :    -0.007933
      px      :     0.001011
      py      :     0.000323
      dz2     :     0.000027  d :    -0.000244
      dxz     :    -0.000106
      dyz     :    -0.000022
      dx2y2   :    -0.000131
      dxy     :    -0.000012

  7 C s       :    -0.003062  s :    -0.003062
      pz      :    -0.015790  p :    -0.026379
      px      :    -0.003366
      py      :    -0.007223
      dz2     :     0.000076  d :     0.000082
      dxz     :    -0.000055
      dyz     :     0.000018
      dx2y2   :     0.000018
      dxy     :     0.000024

  8 C s       :     0.000317  s :     0.000317
      pz      :     0.001063  p :     0.002257
      px      :     0.001067
      py      :     0.000128
      dz2     :    -0.000006  d :    -0.000156
      dxz     :    -0.000005
      dyz     :    -0.000140
      dx2y2   :    -0.000008
      dxy     :     0.000002

  9 C s       :    -0.000358  s :    -0.000358
      pz      :    -0.000599  p :    -0.002493
      px      :    -0.001797
      py      :    -0.000097
      dz2     :     0.000005  d :     0.000027
      dxz     :     0.000004
      dyz     :     0.000005
      dx2y2   :     0.000003
      dxy     :     0.000009

 10 C s       :     0.000266  s :     0.000266
      pz      :     0.000607  p :     0.001680
      px      :     0.000907
      py      :     0.000166
      dz2     :    -0.000006  d :    -0.000036
      dxz     :    -0.000002
      dyz     :    -0.000005
      dx2y2   :    -0.000003
      dxy     :    -0.000018

 11 C s       :    -0.000273  s :    -0.000273
      pz      :    -0.001023  p :    -0.002326
      px      :    -0.001211
      py      :    -0.000091
      dz2     :     0.000008  d :     0.000016
      dxz     :     0.000006
      dyz     :    -0.000001
      dx2y2   :     0.000003
      dxy     :    -0.000000

 12 C s       :     0.000266  s :     0.000266
      pz      :     0.000578  p :     0.001618
      px      :     0.000859
      py      :     0.000181
      dz2     :    -0.000007  d :    -0.000040
      dxz     :    -0.000002
      dyz     :    -0.000006
      dx2y2   :    -0.000003
      dxy     :    -0.000021

 13 C s       :    -0.000403  s :    -0.000403
      pz      :    -0.000701  p :    -0.002880
      px      :    -0.002078
      py      :    -0.000100
      dz2     :     0.000005  d :     0.000027
      dxz     :     0.000005
      dyz     :     0.000005
      dx2y2   :     0.000004
      dxy     :     0.000008

 14 C s       :     0.002651  s :     0.002651
      pz      :     0.009100  p :     0.015961
      px      :     0.002611
      py      :     0.004250
      dz2     :    -0.000076  d :    -0.000347
      dxz     :    -0.000128
      dyz     :    -0.000030
      dx2y2   :    -0.000030
      dxy     :    -0.000082

 15 C s       :    -0.003760  s :    -0.003760
      pz      :    -0.016129  p :    -0.027696
      px      :    -0.004139
      py      :    -0.007427
      dz2     :     0.000032  d :     0.000252
      dxz     :     0.000073
      dyz     :     0.000073
      dx2y2   :     0.000054
      dxy     :     0.000019

 16 C s       :     0.005065  s :     0.005065
      pz      :     0.014969  p :     0.030727
      px      :     0.007057
      py      :     0.008702
      dz2     :    -0.000079  d :    -0.000863
      dxz     :    -0.000353
      dyz     :    -0.000139
      dx2y2   :    -0.000212
      dxy     :    -0.000080

 17 C s       :    -0.003642  s :    -0.003642
      pz      :    -0.015328  p :    -0.026966
      px      :    -0.003878
      py      :    -0.007760
      dz2     :     0.000038  d :     0.000250
      dxz     :     0.000089
      dyz     :     0.000054
      dx2y2   :     0.000029
      dxy     :     0.000040

 18 C s       :     0.002721  s :     0.002721
      pz      :     0.009693  p :     0.016791
      px      :     0.002912
      py      :     0.004186
      dz2     :    -0.000056  d :    -0.000347
      dxz     :    -0.000090
      dyz     :    -0.000077
      dx2y2   :    -0.000115
      dxy     :    -0.000009

 19 C s       :    -0.012146  s :    -0.012146
      pz      :    -0.059075  p :    -0.099129
      px      :    -0.014222
      py      :    -0.025832
      dz2     :     0.000379  d :     0.000938
      dxz     :     0.000156
      dyz     :     0.000184
      dx2y2   :     0.000126
      dxy     :     0.000093

 20 N s       :     0.004745  s :     0.004745
      pz      :     0.029978  p :     0.053206
      px      :     0.004375
      py      :     0.018853
      dz2     :    -0.000317  d :    -0.001291
      dxz     :    -0.000309
      dyz     :    -0.000177
      dx2y2   :    -0.000430
      dxy     :    -0.000057

 21 C s       :    -0.016750  s :    -0.016750
      pz      :    -0.042942  p :    -0.101950
      px      :    -0.026936
      py      :    -0.032072
      dz2     :     0.000245  d :     0.001220
      dxz     :     0.000450
      dyz     :     0.000141
      dx2y2   :     0.000267
      dxy     :     0.000118

 22 C s       :     0.029929  s :     0.029929
      pz      :     0.078777  p :     0.149439
      px      :     0.035761
      py      :     0.034901
      dz2     :    -0.000250  d :    -0.006684
      dxz     :    -0.004062
      dyz     :    -0.002097
      dx2y2   :    -0.000185
      dxy     :    -0.000089

 23 C s       :    -0.016972  s :    -0.016972
      pz      :    -0.042856  p :    -0.105713
      px      :    -0.014594
      py      :    -0.048263
      dz2     :     0.000272  d :     0.001204
      dxz     :     0.000225
      dyz     :     0.000335
      dx2y2   :     0.000265
      dxy     :     0.000107

 24 C s       :     0.010535  s :     0.010535
      pz      :     0.036754  p :     0.069026
      px      :     0.012622
      py      :     0.019650
      dz2     :    -0.000235  d :    -0.001361
      dxz     :    -0.000376
      dyz     :    -0.000130
      dx2y2   :    -0.000345
      dxy     :    -0.000276

 25 C s       :    -0.099365  s :    -0.099365
      pz      :    -0.640579  p :    -0.724166
      px      :    -0.043125
      py      :    -0.040462
      dz2     :     0.001798  d :     0.002853
      dxz     :     0.000267
      dyz     :     0.000135
      dx2y2   :     0.000262
      dxy     :     0.000391

 26 C s       :     0.028512  s :     0.028512
      pz      :     0.050037  p :     0.132315
      px      :     0.036783
      py      :     0.045494
      dz2     :    -0.000542  d :    -0.006339
      dxz     :    -0.004358
      dyz     :    -0.001064
      dx2y2   :    -0.000118
      dxy     :    -0.000258

 27 C s       :     0.028525  s :     0.028525
      pz      :     0.046571  p :     0.133513
      px      :     0.046992
      py      :     0.039950
      dz2     :    -0.000364  d :    -0.006331
      dxz     :    -0.000182
      dyz     :    -0.005381
      dx2y2   :    -0.000190
      dxy     :    -0.000213

 28 C s       :    -0.016397  s :    -0.016397
      pz      :    -0.019987  p :    -0.099514
      px      :    -0.070409
      py      :    -0.009117
      dz2     :     0.000184  d :     0.001024
      dxz     :     0.000160
      dyz     :     0.000154
      dx2y2   :     0.000129
      dxy     :     0.000398

 29 C s       :     0.009402  s :     0.009402
      pz      :     0.018804  p :     0.061455
      px      :     0.038035
      py      :     0.004616
      dz2     :    -0.000259  d :    -0.001310
      dxz     :    -0.000142
      dyz     :    -0.000125
      dx2y2   :    -0.000149
      dxy     :    -0.000634

 30 C s       :    -0.010755  s :    -0.010755
      pz      :    -0.031809  p :    -0.089826
      px      :    -0.053675
      py      :    -0.004341
      dz2     :     0.000308  d :     0.000844
      dxz     :     0.000242
      dyz     :     0.000033
      dx2y2   :     0.000156
      dxy     :     0.000106

 31 C s       :     0.009384  s :     0.009384
      pz      :     0.018668  p :     0.061408
      px      :     0.037908
      py      :     0.004832
      dz2     :    -0.000160  d :    -0.001314
      dxz     :    -0.000106
      dyz     :    -0.000183
      dx2y2   :    -0.000094
      dxy     :    -0.000771

 32 C s       :    -0.016429  s :    -0.016429
      pz      :    -0.018955  p :    -0.099505
      px      :    -0.072898
      py      :    -0.007652
      dz2     :     0.000267  d :     0.001014
      dxz     :     0.000156
      dyz     :     0.000129
      dx2y2   :     0.000104
      dxy     :     0.000358

 33 C s       :    -0.016419  s :    -0.016419
      pz      :    -0.022074  p :    -0.098659
      px      :    -0.010251
      py      :    -0.066334
      dz2     :     0.000290  d :     0.001006
      dxz     :     0.000166
      dyz     :     0.000132
      dx2y2   :     0.000262
      dxy     :     0.000156

 34 C s       :     0.009305  s :     0.009305
      pz      :     0.020972  p :     0.060877
      px      :     0.008363
      py      :     0.031543
      dz2     :    -0.000147  d :    -0.001304
      dxz     :    -0.000210
      dyz     :    -0.000126
      dx2y2   :    -0.000268
      dxy     :    -0.000553

 35 C s       :    -0.010658  s :    -0.010658
      pz      :    -0.035664  p :    -0.088941
      px      :    -0.008669
      py      :    -0.044608
      dz2     :     0.000323  d :     0.000837
      dxz     :     0.000063
      dyz     :     0.000199
      dx2y2   :     0.000114
      dxy     :     0.000138

 36 C s       :     0.009322  s :     0.009322
      pz      :     0.021192  p :     0.060932
      px      :     0.007440
      py      :     0.032300
      dz2     :    -0.000301  d :    -0.001302
      dxz     :    -0.000175
      dyz     :    -0.000090
      dx2y2   :    -0.000531
      dxy     :    -0.000206

 37 C s       :    -0.016337  s :    -0.016337
      pz      :    -0.023641  p :    -0.098867
      px      :    -0.021157
      py      :    -0.054069
      dz2     :     0.000165  d :     0.001015
      dxz     :     0.000196
      dyz     :     0.000166
      dx2y2   :     0.000193
      dxy     :     0.000295

 38 Cls       :    -0.000162  s :    -0.000162
      pz      :    -0.001489  p :    -0.002238
      px      :     0.000297
      py      :    -0.001046
      dz2     :    -0.000217  d :    -0.000541
      dxz     :    -0.000049
      dyz     :    -0.000009
      dx2y2   :    -0.000028
      dxy     :    -0.000238

 39 Cls       :    -0.000157  s :    -0.000157
      pz      :     0.000877  p :    -0.001593
      px      :    -0.003431
      py      :     0.000961
      dz2     :    -0.000139  d :    -0.000531
      dxz     :    -0.000085
      dyz     :     0.000011
      dx2y2   :    -0.000079
      dxy     :    -0.000239

 40 Cls       :    -0.000186  s :    -0.000186
      pz      :     0.001885  p :    -0.002117
      px      :    -0.003779
      py      :    -0.000224
      dz2     :    -0.000168  d :    -0.000547
      dxz     :    -0.000144
      dyz     :     0.000017
      dx2y2   :    -0.000143
      dxy     :    -0.000109

 41 Cls       :    -0.000046  s :    -0.000046
      pz      :    -0.000591  p :    -0.004126
      px      :    -0.000271
      py      :    -0.003264
      dz2     :    -0.000224  d :    -0.000494
      dxz     :    -0.000001
      dyz     :    -0.000031
      dx2y2   :    -0.000208
      dxy     :    -0.000029

 42 Cls       :    -0.000163  s :    -0.000163
      pz      :     0.000166  p :    -0.001572
      px      :     0.000794
      py      :    -0.002532
      dz2     :    -0.000144  d :    -0.000531
      dxz     :    -0.000003
      dyz     :    -0.000049
      dx2y2   :    -0.000016
      dxy     :    -0.000318

 43 Cls       :    -0.000196  s :    -0.000196
      pz      :     0.001552  p :    -0.002021
      px      :    -0.000201
      py      :    -0.003372
      dz2     :    -0.000192  d :    -0.000546
      dxz     :    -0.000007
      dyz     :    -0.000094
      dx2y2   :    -0.000255
      dxy     :     0.000002

 44 Cls       :    -0.000239  s :    -0.000239
      pz      :    -0.002456  p :    -0.004681
      px      :    -0.006132
      py      :     0.003907
      dz2     :    -0.000004  d :    -0.000538
      dxz     :    -0.000001
      dyz     :    -0.000154
      dx2y2   :    -0.000030
      dxy     :    -0.000349

 45 Cls       :    -0.000235  s :    -0.000235
      pz      :    -0.002816  p :    -0.004559
      px      :     0.002539
      py      :    -0.004282
      dz2     :    -0.000012  d :    -0.000534
      dxz     :    -0.000166
      dyz     :    -0.000013
      dx2y2   :    -0.000166
      dxy     :    -0.000178

 46 C s       :    -0.012358  s :    -0.012358
      pz      :    -0.060916  p :    -0.100867
      px      :    -0.014593
      py      :    -0.025358
      dz2     :     0.000385  d :     0.000954
      dxz     :     0.000165
      dyz     :     0.000191
      dx2y2   :     0.000123
      dxy     :     0.000090

 47 N s       :     0.004887  s :     0.004887
      pz      :     0.030912  p :     0.054264
      px      :     0.004806
      py      :     0.018546
      dz2     :    -0.000303  d :    -0.001318
      dxz     :    -0.000320
      dyz     :    -0.000203
      dx2y2   :    -0.000435
      dxy     :    -0.000057

 48 C s       :    -0.016948  s :    -0.016948
      pz      :    -0.044248  p :    -0.102602
      px      :    -0.026853
      py      :    -0.031501
      dz2     :     0.000256  d :     0.001232
      dxz     :     0.000455
      dyz     :     0.000140
      dx2y2   :     0.000265
      dxy     :     0.000117

 49 C s       :     0.029745  s :     0.029745
      pz      :     0.079456  p :     0.149343
      px      :     0.035706
      py      :     0.034181
      dz2     :    -0.000237  d :    -0.006730
      dxz     :    -0.004152
      dyz     :    -0.002090
      dx2y2   :    -0.000163
      dxy     :    -0.000088

 50 C s       :    -0.017134  s :    -0.017134
      pz      :    -0.044807  p :    -0.107337
      px      :    -0.014963
      py      :    -0.047567
      dz2     :     0.000267  d :     0.001213
      dxz     :     0.000225
      dyz     :     0.000353
      dx2y2   :     0.000263
      dxy     :     0.000104

 51 C s       :     0.010686  s :     0.010686
      pz      :     0.037711  p :     0.070120
      px      :     0.012938
      py      :     0.019472
      dz2     :    -0.000249  d :    -0.001389
      dxz     :    -0.000386
      dyz     :    -0.000132
      dx2y2   :    -0.000347
      dxy     :    -0.000276

 52 C s       :    -0.093863  s :    -0.093863
      pz      :    -0.642507  p :    -0.717696
      px      :    -0.040370
      py      :    -0.034818
      dz2     :     0.001817  d :     0.002501
      dxz     :     0.000271
      dyz     :     0.000066
      dx2y2   :     0.000314
      dxy     :     0.000032

 53 C s       :     0.029195  s :     0.029195
      pz      :     0.049720  p :     0.135622
      px      :     0.037745
      py      :     0.048157
      dz2     :    -0.000570  d :    -0.006502
      dxz     :    -0.004441
      dyz     :    -0.001085
      dx2y2   :    -0.000118
      dxy     :    -0.000288

 54 C s       :     0.016933  s :     0.016933
      pz      :     0.019965  p :     0.059454
      px      :     0.002443
      py      :     0.037045
      dz2     :     0.001390  d :    -0.000675
      dxz     :     0.001016
      dyz     :    -0.005045
      dx2y2   :     0.001892
      dxy     :     0.000072

 55 C s       :     0.146836  s :     0.146836
      pz      :     0.459054  p :     0.773193
      px      :     0.197341
      py      :     0.116799
      dz2     :    -0.000902  d :    -0.002228
      dxz     :     0.000134
      dyz     :    -0.000836
      dx2y2   :    -0.000383
      dxy     :    -0.000241

 56 C s       :    -0.001637  s :    -0.001637
      pz      :    -0.014672  p :    -0.024265
      px      :    -0.010526
      py      :     0.000933
      dz2     :     0.000111  d :     0.005256
      dxz     :     0.000102
      dyz     :     0.003412
      dx2y2   :     0.000337
      dxy     :     0.001295

 57 C s       :     0.005178  s :     0.005178
      pz      :    -0.005779  p :    -0.032791
      px      :    -0.024595
      py      :    -0.002418
      dz2     :     0.000063  d :     0.000417
      dxz     :     0.000161
      dyz     :    -0.000064
      dx2y2   :     0.000231
      dxy     :     0.000026

 58 C s       :     0.002633  s :     0.002633
      pz      :     0.001230  p :     0.006707
      px      :     0.004069
      py      :     0.001408
      dz2     :    -0.000085  d :    -0.000879
      dxz     :    -0.000013
      dyz     :    -0.000137
      dx2y2   :    -0.000030
      dxy     :    -0.000614

 59 C s       :    -0.002117  s :    -0.002117
      pz      :    -0.004391  p :    -0.049108
      px      :    -0.048585
      py      :     0.003869
      dz2     :     0.000108  d :     0.000981
      dxz     :     0.000191
      dyz     :     0.000464
      dx2y2   :    -0.000034
      dxy     :     0.000252

 60 C s       :    -0.016922  s :    -0.016922
      pz      :    -0.022860  p :    -0.103735
      px      :    -0.011163
      py      :    -0.069713
      dz2     :     0.000303  d :     0.001065
      dxz     :     0.000173
      dyz     :     0.000137
      dx2y2   :     0.000291
      dxy     :     0.000162

 61 C s       :     0.009834  s :     0.009834
      pz      :     0.021409  p :     0.064391
      px      :     0.008957
      py      :     0.034025
      dz2     :    -0.000153  d :    -0.001378
      dxz     :    -0.000211
      dyz     :    -0.000136
      dx2y2   :    -0.000289
      dxy     :    -0.000589

 62 C s       :    -0.011219  s :    -0.011219
      pz      :    -0.036260  p :    -0.093494
      px      :    -0.009330
      py      :    -0.047904
      dz2     :     0.000336  d :     0.000885
      dxz     :     0.000066
      dyz     :     0.000213
      dx2y2   :     0.000122
      dxy     :     0.000148

 63 C s       :     0.009807  s :     0.009807
      pz      :     0.021627  p :     0.064122
      px      :     0.008105
      py      :     0.034390
      dz2     :    -0.000310  d :    -0.001375
      dxz     :    -0.000182
      dyz     :    -0.000097
      dx2y2   :    -0.000565
      dxy     :    -0.000220

 64 C s       :    -0.016839  s :    -0.016839
      pz      :    -0.023789  p :    -0.103264
      px      :    -0.021784
      py      :    -0.057691
      dz2     :     0.000169  d :     0.001051
      dxz     :     0.000188
      dyz     :     0.000180
      dx2y2   :     0.000195
      dxy     :     0.000319

 65 Cls       :    -0.000160  s :    -0.000160
      pz      :    -0.001495  p :    -0.002232
      px      :     0.000205
      py      :    -0.000941
      dz2     :    -0.000227  d :    -0.000560
      dxz     :    -0.000050
      dyz     :    -0.000008
      dx2y2   :    -0.000030
      dxy     :    -0.000245

 66 Cls       :    -0.000806  s :    -0.000806
      pz      :     0.014816  p :     0.017515
      px      :     0.003000
      py      :    -0.000300
      dz2     :    -0.000066  d :    -0.000419
      dxz     :    -0.000100
      dyz     :    -0.000007
      dx2y2   :    -0.000030
      dxy     :    -0.000215

 67 Cls       :    -0.000751  s :    -0.000751
      pz      :     0.002662  p :     0.999879
      px      :     0.992454
      py      :     0.004762
      dz2     :     0.000189  d :     0.000757
      dxz     :     0.000006
      dyz     :     0.000000
      dx2y2   :     0.000552
      dxy     :     0.000010

 68 Cls       :    -0.000015  s :    -0.000015
      pz      :    -0.000651  p :    -0.004097
      px      :    -0.000221
      py      :    -0.003225
      dz2     :    -0.000225  d :    -0.000505
      dxz     :    -0.000005
      dyz     :    -0.000037
      dx2y2   :    -0.000208
      dxy     :    -0.000029

 69 Cls       :    -0.000162  s :    -0.000162
      pz      :     0.000351  p :    -0.001695
      px      :     0.000701
      py      :    -0.002748
      dz2     :    -0.000152  d :    -0.000570
      dxz     :    -0.000003
      dyz     :    -0.000057
      dx2y2   :    -0.000019
      dxy     :    -0.000339

 70 Cls       :    -0.000251  s :    -0.000251
      pz      :     0.001809  p :    -0.002468
      px      :    -0.000463
      py      :    -0.003815
      dz2     :    -0.000200  d :    -0.000582
      dxz     :    -0.000016
      dyz     :    -0.000108
      dx2y2   :    -0.000258
      dxy     :    -0.000000

 71 Cls       :    -0.000751  s :    -0.000751
      pz      :     0.000957  p :     0.010114
      px      :    -0.003394
      py      :     0.012551
      dz2     :    -0.000025  d :    -0.000374
      dxz     :    -0.000001
      dyz     :    -0.000049
      dx2y2   :    -0.000095
      dxy     :    -0.000204

 72 Cls       :    -0.000244  s :    -0.000244
      pz      :    -0.002810  p :    -0.004689
      px      :     0.002653
      py      :    -0.004532
      dz2     :    -0.000012  d :    -0.000566
      dxz     :    -0.000170
      dyz     :    -0.000012
      dx2y2   :    -0.000181
      dxy     :    -0.000191

 73 O s       :    -0.000009  s :    -0.000009
      pz      :    -0.000165  p :    -0.000355
      px      :    -0.000235
      py      :     0.000046
      dz2     :     0.000000  d :    -0.000004
      dxz     :     0.000000
      dyz     :    -0.000002
      dx2y2   :     0.000000
      dxy     :    -0.000002

 74 C s       :     0.000007  s :     0.000007
      pz      :     0.000015  p :     0.000038
      px      :     0.000016
      py      :     0.000006
      dz2     :    -0.000003  d :    -0.000004
      dxz     :    -0.000000
      dyz     :    -0.000000
      dx2y2   :    -0.000001
      dxy     :    -0.000000

 75 H s       :     0.001195  s :     0.001195
      pz      :    -0.000043  p :    -0.000067
      px      :    -0.000010
      py      :    -0.000015

 76 H s       :     0.001385  s :     0.001385
      pz      :    -0.000050  p :    -0.000074
      px      :    -0.000007
      py      :    -0.000018

 77 H s       :    -0.000669  s :    -0.000669
      pz      :     0.000024  p :     0.000039
      px      :     0.000004
      py      :     0.000012

 78 H s       :    -0.000704  s :    -0.000704
      pz      :     0.000024  p :     0.000041
      px      :     0.000005
      py      :     0.000011

 79 H s       :     0.000139  s :     0.000139
      pz      :    -0.000002  p :    -0.000007
      px      :    -0.000003
      py      :    -0.000002

 80 H s       :    -0.000093  s :    -0.000093
      pz      :     0.000002  p :     0.000004
      px      :     0.000003
      py      :     0.000000

 81 H s       :    -0.000087  s :    -0.000087
      pz      :     0.000002  p :     0.000004
      px      :     0.000003
      py      :     0.000000

 82 H s       :     0.000160  s :     0.000160
      pz      :    -0.000003  p :    -0.000008
      px      :    -0.000004
      py      :    -0.000001

 83 H s       :    -0.000676  s :    -0.000676
      pz      :     0.000025  p :     0.000040
      px      :     0.000004
      py      :     0.000011

 84 H s       :     0.001409  s :     0.001409
      pz      :    -0.000053  p :    -0.000076
      px      :    -0.000006
      py      :    -0.000016

 85 H s       :     0.000947  s :     0.000947
      pz      :    -0.000045  p :    -0.000069
      px      :    -0.000010
      py      :    -0.000014

 86 H s       :    -0.000717  s :    -0.000717
      pz      :     0.000026  p :     0.000041
      px      :     0.000005
      py      :     0.000010

 87 H s       :    -0.003877  s :    -0.003877
      pz      :     0.000103  p :     0.000187
      px      :     0.000026
      py      :     0.000058

 88 H s       :    -0.003270  s :    -0.003270
      pz      :     0.000044  p :     0.000162
      px      :     0.000112
      py      :     0.000006

 89 H s       :    -0.003328  s :    -0.003328
      pz      :     0.000047  p :     0.000163
      px      :     0.000111
      py      :     0.000004

 90 H s       :    -0.003300  s :    -0.003300
      pz      :     0.000055  p :     0.000161
      px      :     0.000015
      py      :     0.000091

 91 H s       :    -0.003263  s :    -0.003263
      pz      :     0.000052  p :     0.000161
      px      :     0.000016
      py      :     0.000094

 92 H s       :    -0.003935  s :    -0.003935
      pz      :     0.000106  p :     0.000190
      px      :     0.000026
      py      :     0.000057

 93 H s       :     0.016279  s :     0.016279
      pz      :    -0.000014  p :    -0.000012
      px      :    -0.000005
      py      :     0.000007

 94 H s       :    -0.001108  s :    -0.001108
      pz      :    -0.000001  p :     0.000008
      px      :     0.000004
      py      :     0.000004

 95 H s       :    -0.003459  s :    -0.003459
      pz      :     0.000057  p :     0.000171
      px      :     0.000017
      py      :     0.000098

 96 H s       :    -0.003413  s :    -0.003413
      pz      :     0.000053  p :     0.000170
      px      :     0.000017
      py      :     0.000100

 97 H s       :     0.000001  s :     0.000001
      pz      :     0.000000  p :     0.000000
      px      :     0.000000
      py      :    -0.000000

 98 H s       :    -0.000038  s :    -0.000038
      pz      :     0.000000  p :     0.000000
      px      :     0.000000
      py      :     0.000000

 99 H s       :    -0.000036  s :    -0.000036
      pz      :     0.000000  p :     0.000000
      px      :     0.000000
      py      :     0.000000



                     *******************************
                     * LOEWDIN POPULATION ANALYSIS *
                     *******************************

-------------------------------------------
LOEWDIN ATOMIC CHARGES AND SPIN POPULATIONS
-------------------------------------------
   0 C :   -0.038322   -0.022999
   1 C :   -0.047513    0.019250
   2 C :   -0.056253   -0.023046
   3 C :   -0.091703    0.011551
   4 C :    0.046024   -0.021919
   5 C :   -0.091506    0.012337
   6 N :   -0.041488   -0.010352
   7 C :    0.045336   -0.022021
   8 C :    0.003249    0.001296
   9 C :   -0.067165   -0.002111
  10 C :   -0.090026    0.001276
  11 C :    0.079147   -0.001945
  12 C :   -0.123952    0.001190
  13 C :   -0.067486   -0.002471
  14 C :   -0.092514    0.011671
  15 C :   -0.056019   -0.023422
  16 C :   -0.047038    0.019591
  17 C :   -0.037903   -0.023110
  18 C :   -0.091305    0.012480
  19 C :    0.058274   -0.083586
  20 N :   -0.114272    0.040458
  21 C :   -0.016354   -0.093130
  22 C :   -0.062570    0.085631
  23 C :   -0.042605   -0.093186
  24 C :   -0.098493    0.053241
  25 C :    0.018290   -0.655312
  26 C :   -0.040020    0.073333
  27 C :   -0.039133    0.074075
  28 C :   -0.058685   -0.088791
  29 C :   -0.082628    0.046971
  30 C :   -0.069858   -0.077627
  31 C :   -0.082530    0.046898
  32 C :   -0.058236   -0.088942
  33 C :   -0.059215   -0.088287
  34 C :   -0.083311    0.046478
  35 C :   -0.070437   -0.076852
  36 C :   -0.083289    0.046561
  37 C :   -0.059655   -0.088409
  38 Cl:    0.064449   -0.004627
  39 Cl:    0.058506   -0.003966
  40 Cl:    0.060936   -0.004616
  41 Cl:    0.047752   -0.006288
  42 Cl:    0.061278   -0.003933
  43 Cl:    0.060738   -0.004494
  44 Cl:    0.056716   -0.007331
  45 Cl:    0.055881   -0.007187
  46 C :    0.057463   -0.085054
  47 N :   -0.114769    0.041326
  48 C :   -0.016883   -0.093830
  49 C :   -0.062583    0.085123
  50 C :   -0.043375   -0.094638
  51 C :   -0.098089    0.054038
  52 C :    0.018781   -0.648658
  53 C :   -0.039871    0.075197
  54 C :   -0.050366    0.056922
  55 C :    0.058523    0.848218
  56 C :   -0.101490    0.018767
  57 C :   -0.069332   -0.021303
  58 C :   -0.085042    0.001183
  59 C :   -0.060702   -0.038287
  60 C :   -0.063070   -0.092708
  61 C :   -0.083918    0.049233
  62 C :   -0.071184   -0.080743
  63 C :   -0.084066    0.048951
  64 C :   -0.058922   -0.092336
  65 Cl:    0.063578   -0.004680
  66 Cl:    0.054981    0.012954
  67 Cl:    0.000135    0.999902
  68 Cl:    0.044286   -0.006157
  69 Cl:    0.060809   -0.004186
  70 Cl:    0.062851   -0.005116
  71 Cl:    0.053864    0.005302
  72 Cl:    0.056177   -0.007458
  73 O :   -0.161248   -0.000458
  74 C :   -0.046233    0.000012
  75 H :    0.093330    0.000308
  76 H :    0.075953    0.000357
  77 H :    0.084680   -0.000147
  78 H :    0.085624   -0.000169
  79 H :    0.085898    0.000034
  80 H :    0.086278   -0.000032
  81 H :    0.079929   -0.000029
  82 H :    0.084947    0.000038
  83 H :    0.084456   -0.000149
  84 H :    0.076000    0.000361
  85 H :    0.093102    0.000251
  86 H :    0.085759   -0.000173
  87 H :    0.091823   -0.001238
  88 H :    0.102366   -0.001110
  89 H :    0.102442   -0.001152
  90 H :    0.102170   -0.001144
  91 H :    0.102330   -0.001115
  92 H :    0.091754   -0.001250
  93 H :    0.098603    0.013595
  94 H :    0.101991   -0.000694
  95 H :    0.102366   -0.001178
  96 H :    0.102445   -0.001158
  97 H :    0.081426    0.000001
  98 H :    0.064450   -0.000024
  99 H :    0.064482   -0.000024

----------------------------------------------------
LOEWDIN REDUCED ORBITAL CHARGES AND SPIN POPULATIONS
----------------------------------------------------
CHARGE
  0 C s       :     2.891402  s :     2.891402
      pz      :     0.986018  p :     3.063078
      px      :     1.041373
      py      :     1.035687
      dz2     :     0.008937  d :     0.083842
      dxz     :     0.018463
      dyz     :     0.010169
      dx2y2   :     0.023735
      dxy     :     0.022538

  1 C s       :     2.861387  s :     2.861387
      pz      :     1.033389  p :     3.086796
      px      :     1.018958
      py      :     1.034450
      dz2     :     0.013966  d :     0.099330
      dxz     :     0.016781
      dyz     :     0.015373
      dx2y2   :     0.025708
      dxy     :     0.027502

  2 C s       :     2.888393  s :     2.888393
      pz      :     0.999449  p :     3.083094
      px      :     1.053089
      py      :     1.030555
      dz2     :     0.008503  d :     0.084767
      dxz     :     0.016123
      dyz     :     0.013195
      dx2y2   :     0.023702
      dxy     :     0.023244

  3 C s       :     2.889247  s :     2.889247
      pz      :     1.015350  p :     3.121022
      px      :     1.051764
      py      :     1.053909
      dz2     :     0.008442  d :     0.081433
      dxz     :     0.018588
      dyz     :     0.009933
      dx2y2   :     0.023053
      dxy     :     0.021417

  4 C s       :     2.851153  s :     2.851153
      pz      :     0.992053  p :     2.963510
      px      :     0.953905
      py      :     1.017551
      dz2     :     0.017519  d :     0.139313
      dxz     :     0.034029
      dyz     :     0.020103
      dx2y2   :     0.030989
      dxy     :     0.036672

  5 C s       :     2.890127  s :     2.890127
      pz      :     1.013979  p :     3.119701
      px      :     1.062678
      py      :     1.043044
      dz2     :     0.008122  d :     0.081679
      dxz     :     0.015481
      dyz     :     0.013424
      dx2y2   :     0.023304
      dxy     :     0.021347

  6 N s       :     3.043100  s :     3.043100
      pz      :     1.617081  p :     3.901925
      px      :     1.141924
      py      :     1.142920
      dz2     :     0.005177  d :     0.096463
      dxz     :     0.011628
      dyz     :     0.010794
      dx2y2   :     0.034152
      dxy     :     0.034712

  7 C s       :     2.851018  s :     2.851018
      pz      :     0.988969  p :     2.964368
      px      :     0.953756
      py      :     1.021643
      dz2     :     0.016890  d :     0.139278
      dxz     :     0.033425
      dyz     :     0.019895
      dx2y2   :     0.031757
      dxy     :     0.037311

  8 C s       :     2.847179  s :     2.847179
      pz      :     1.049909  p :     3.013630
      px      :     1.048044
      py      :     0.915677
      dz2     :     0.022997  d :     0.135941
      dxz     :     0.013831
      dyz     :     0.044176
      dx2y2   :     0.033197
      dxy     :     0.021741

  9 C s       :     2.893256  s :     2.893256
      pz      :     1.014630  p :     3.090128
      px      :     1.013401
      py      :     1.062096
      dz2     :     0.012207  d :     0.083781
      dxz     :     0.009387
      dyz     :     0.024616
      dx2y2   :     0.017071
      dxy     :     0.020500

 10 C s       :     2.891274  s :     2.891274
      pz      :     1.034212  p :     3.118391
      px      :     1.026672
      py      :     1.057507
      dz2     :     0.011006  d :     0.080361
      dxz     :     0.009214
      dyz     :     0.023534
      dx2y2   :     0.016453
      dxy     :     0.020154

 11 C s       :     2.847874  s :     2.847874
      pz      :     1.030373  p :     2.904039
      px      :     1.002204
      py      :     0.871462
      dz2     :     0.026441  d :     0.168940
      dxz     :     0.013288
      dyz     :     0.045509
      dx2y2   :     0.042085
      dxy     :     0.041615

 12 C s       :     2.888544  s :     2.888544
      pz      :     1.048732  p :     3.154554
      px      :     1.048162
      py      :     1.057660
      dz2     :     0.011355  d :     0.080855
      dxz     :     0.009738
      dyz     :     0.023260
      dx2y2   :     0.016547
      dxy     :     0.019955

 13 C s       :     2.892378  s :     2.892378
      pz      :     1.017228  p :     3.091088
      px      :     1.016864
      py      :     1.056996
      dz2     :     0.012195  d :     0.084020
      dxz     :     0.009436
      dyz     :     0.024529
      dx2y2   :     0.017339
      dxy     :     0.020521

 14 C s       :     2.889133  s :     2.889133
      pz      :     1.014889  p :     3.121962
      px      :     1.051902
      py      :     1.055172
      dz2     :     0.008199  d :     0.081419
      dxz     :     0.018168
      dyz     :     0.009590
      dx2y2   :     0.023550
      dxy     :     0.021912

 15 C s       :     2.888362  s :     2.888362
      pz      :     0.996733  p :     3.082892
      px      :     1.053242
      py      :     1.032917
      dz2     :     0.008023  d :     0.084765
      dxz     :     0.015452
      dyz     :     0.013219
      dx2y2   :     0.024061
      dxy     :     0.024010

 16 C s       :     2.861412  s :     2.861412
      pz      :     1.031268  p :     3.086281
      px      :     1.019009
      py      :     1.036004
      dz2     :     0.013335  d :     0.099344
      dxz     :     0.016164
      dyz     :     0.015307
      dx2y2   :     0.026419
      dxy     :     0.028120

 17 C s       :     2.891353  s :     2.891353
      pz      :     0.981780  p :     3.062715
      px      :     1.041597
      py      :     1.039339
      dz2     :     0.008675  d :     0.083834
      dxz     :     0.018146
      dyz     :     0.009859
      dx2y2   :     0.024213
      dxy     :     0.022941

 18 C s       :     2.890050  s :     2.890050
      pz      :     1.013300  p :     3.119577
      px      :     1.063104
      py      :     1.043173
      dz2     :     0.007743  d :     0.081677
      dxz     :     0.014919
      dyz     :     0.013243
      dx2y2   :     0.023819
      dxy     :     0.021953

 19 C s       :     2.855069  s :     2.855069
      pz      :     0.942629  p :     2.940705
      px      :     1.032583
      py      :     0.965493
      dz2     :     0.019501  d :     0.145952
      dxz     :     0.025427
      dyz     :     0.026120
      dx2y2   :     0.034241
      dxy     :     0.040663

 20 N s       :     3.207925  s :     3.207925
      pz      :     1.265405  p :     3.820048
      px      :     1.393998
      py      :     1.160644
      dz2     :     0.012447  d :     0.086300
      dxz     :     0.011305
      dyz     :     0.017405
      dx2y2   :     0.023533
      dxy     :     0.021611

 21 C s       :     2.893904  s :     2.893904
      pz      :     0.960011  p :     2.961273
      px      :     1.053943
      py      :     0.947319
      dz2     :     0.019795  d :     0.161177
      dxz     :     0.031240
      dyz     :     0.024879
      dx2y2   :     0.048312
      dxy     :     0.036950

 22 C s       :     2.870099  s :     2.870099
      pz      :     1.037940  p :     3.089543
      px      :     1.024667
      py      :     1.026936
      dz2     :     0.011724  d :     0.102929
      dxz     :     0.022610
      dyz     :     0.017660
      dx2y2   :     0.027333
      dxy     :     0.023603

 23 C s       :     2.911037  s :     2.911037
      pz      :     0.975100  p :     3.015831
      px      :     0.992979
      py      :     1.047752
      dz2     :     0.016272  d :     0.115737
      dxz     :     0.024194
      dyz     :     0.017956
      dx2y2   :     0.029462
      dxy     :     0.027852

 24 C s       :     2.891588  s :     2.891588
      pz      :     1.034553  p :     3.125458
      px      :     1.042431
      py      :     1.048473
      dz2     :     0.008793  d :     0.081448
      dxz     :     0.016550
      dyz     :     0.011231
      dx2y2   :     0.022103
      dxy     :     0.022772

 25 C s       :     2.876524  s :     2.876524
      pz      :     0.972114  p :     3.013342
      px      :     1.020732
      py      :     1.020497
      dz2     :     0.006861  d :     0.091843
      dxz     :     0.009893
      dyz     :     0.008738
      dx2y2   :     0.032493
      dxy     :     0.033859

 26 C s       :     2.867119  s :     2.867119
      pz      :     1.032863  p :     3.070023
      px      :     1.023818
      py      :     1.013343
      dz2     :     0.017625  d :     0.102877
      dxz     :     0.028926
      dyz     :     0.016598
      dx2y2   :     0.020359
      dxy     :     0.019369

 27 C s       :     2.866694  s :     2.866694
      pz      :     1.034769  p :     3.069551
      px      :     1.011162
      py      :     1.023620
      dz2     :     0.018475  d :     0.102888
      dxz     :     0.013933
      dyz     :     0.033242
      dx2y2   :     0.019041
      dxy     :     0.018197

 28 C s       :     2.908605  s :     2.908605
      pz      :     0.964976  p :     3.036815
      px      :     0.996847
      py      :     1.074992
      dz2     :     0.024209  d :     0.113266
      dxz     :     0.015963
      dyz     :     0.031266
      dx2y2   :     0.020209
      dxy     :     0.021618

 29 C s       :     2.892107  s :     2.892107
      pz      :     1.040335  p :     3.107115
      px      :     1.016064
      py      :     1.050717
      dz2     :     0.015488  d :     0.083406
      dxz     :     0.010803
      dyz     :     0.023277
      dx2y2   :     0.017281
      dxy     :     0.016556

 30 C s       :     2.904204  s :     2.904204
      pz      :     1.073894  p :     3.048863
      px      :     1.038019
      py      :     0.936950
      dz2     :     0.024384  d :     0.116790
      dxz     :     0.014389
      dyz     :     0.030581
      dx2y2   :     0.025857
      dxy     :     0.021579

 31 C s       :     2.892041  s :     2.892041
      pz      :     1.044985  p :     3.107072
      px      :     1.017554
      py      :     1.044532
      dz2     :     0.014168  d :     0.083417
      dxz     :     0.009151
      dyz     :     0.023769
      dx2y2   :     0.018178
      dxy     :     0.018150

 32 C s       :     2.908835  s :     2.908835
      pz      :     0.988831  p :     3.036269
      px      :     1.005521
      py      :     1.041917
      dz2     :     0.023127  d :     0.113131
      dxz     :     0.015372
      dyz     :     0.032643
      dx2y2   :     0.020232
      dxy     :     0.021756

 33 C s       :     2.908998  s :     2.908998
      pz      :     0.996316  p :     3.037011
      px      :     1.003549
      py      :     1.037146
      dz2     :     0.021675  d :     0.113206
      dxz     :     0.030545
      dyz     :     0.016288
      dx2y2   :     0.022796
      dxy     :     0.021901

 34 C s       :     2.892151  s :     2.892151
      pz      :     1.041862  p :     3.107735
      px      :     1.038733
      py      :     1.027140
      dz2     :     0.012940  d :     0.083426
      dxz     :     0.022354
      dyz     :     0.009835
      dx2y2   :     0.018747
      dxy     :     0.019549

 35 C s       :     2.904255  s :     2.904255
      pz      :     1.066886  p :     3.049411
      px      :     0.962222
      py      :     1.020303
      dz2     :     0.023071  d :     0.116771
      dxz     :     0.027756
      dyz     :     0.015848
      dx2y2   :     0.024609
      dxy     :     0.025487

 36 C s       :     2.892152  s :     2.892152
      pz      :     1.036171  p :     3.107715
      px      :     1.053667
      py      :     1.017878
      dz2     :     0.014679  d :     0.083421
      dxz     :     0.019881
      dyz     :     0.013634
      dx2y2   :     0.018439
      dxy     :     0.016788

 37 C s       :     2.908785  s :     2.908785
      pz      :     0.966028  p :     3.037550
      px      :     1.085603
      py      :     0.985920
      dz2     :     0.022769  d :     0.113319
      dxz     :     0.027891
      dyz     :     0.018275
      dx2y2   :     0.022138
      dxy     :     0.022247

 38 Cls       :     5.795896  s :     5.795896
      pz      :     3.681427  p :    11.105829
      px      :     3.559351
      py      :     3.865051
      dz2     :     0.004140  d :     0.033826
      dxz     :     0.014203
      dyz     :     0.003494
      dx2y2   :     0.005439
      dxy     :     0.006551

 39 Cls       :     5.796966  s :     5.796966
      pz      :     3.568093  p :    11.110673
      px      :     3.804573
      py      :     3.738007
      dz2     :     0.005968  d :     0.033855
      dxz     :     0.007838
      dyz     :     0.011987
      dx2y2   :     0.002393
      dxy     :     0.005669

 40 Cls       :     5.796552  s :     5.796552
      pz      :     3.465721  p :    11.108586
      px      :     3.768953
      py      :     3.873912
      dz2     :     0.010089  d :     0.033927
      dxz     :     0.012023
      dyz     :     0.006646
      dx2y2   :     0.002263
      dxy     :     0.002906

 41 Cls       :     5.804966  s :     5.804966
      pz      :     3.648841  p :    11.115739
      px      :     3.937586
      py      :     3.529311
      dz2     :     0.004277  d :     0.031543
      dxz     :     0.001451
      dyz     :     0.016063
      dx2y2   :     0.007559
      dxy     :     0.002193

 42 Cls       :     5.797025  s :     5.797025
      pz      :     3.615008  p :    11.107700
      px      :     3.599088
      py      :     3.893603
      dz2     :     0.004885  d :     0.033998
      dxz     :     0.016033
      dyz     :     0.003443
      dx2y2   :     0.004670
      dxy     :     0.004967

 43 Cls       :     5.796670  s :     5.796670
      pz      :     3.484947  p :    11.108641
      px      :     3.935352
      py      :     3.688342
      dz2     :     0.009468  d :     0.033951
      dxz     :     0.002903
      dyz     :     0.015867
      dx2y2   :     0.004139
      dxy     :     0.001575

 44 Cls       :     5.794948  s :     5.794948
      pz      :     3.929155  p :    11.114924
      px      :     3.927678
      py      :     3.258091
      dz2     :     0.005604  d :     0.033412
      dxz     :     0.000139
      dyz     :     0.005363
      dx2y2   :     0.016361
      dxy     :     0.005947

 45 Cls       :     5.795084  s :     5.795084
      pz      :     3.921493  p :    11.115655
      px      :     3.385242
      py      :     3.808920
      dz2     :     0.005386  d :     0.033380
      dxz     :     0.005148
      dyz     :     0.001022
      dx2y2   :     0.009621
      dxy     :     0.012203

 46 C s       :     2.854920  s :     2.854920
      pz      :     0.942857  p :     2.941720
      px      :     1.031951
      py      :     0.966912
      dz2     :     0.019123  d :     0.145897
      dxz     :     0.024811
      dyz     :     0.026193
      dx2y2   :     0.034669
      dxy     :     0.041100

 47 N s       :     3.207848  s :     3.207848
      pz      :     1.265912  p :     3.820581
      px      :     1.391311
      py      :     1.163358
      dz2     :     0.012183  d :     0.086340
      dxz     :     0.011227
      dyz     :     0.017410
      dx2y2   :     0.023911
      dxy     :     0.021609

 48 C s       :     2.893803  s :     2.893803
      pz      :     0.961473  p :     2.961950
      px      :     1.054222
      py      :     0.946256
      dz2     :     0.019421  d :     0.161130
      dxz     :     0.031015
      dyz     :     0.024677
      dx2y2   :     0.048769
      dxy     :     0.037249

 49 C s       :     2.870351  s :     2.870351
      pz      :     1.037074  p :     3.089183
      px      :     1.025194
      py      :     1.026915
      dz2     :     0.011507  d :     0.103049
      dxz     :     0.022572
      dyz     :     0.017530
      dx2y2   :     0.027618
      dxy     :     0.023821

 50 C s       :     2.911041  s :     2.911041
      pz      :     0.974708  p :     3.016636
      px      :     0.993731
      py      :     1.048196
      dz2     :     0.016022  d :     0.115698
      dxz     :     0.023864
      dyz     :     0.018069
      dx2y2   :     0.029596
      dxy     :     0.028147

 51 C s       :     2.891604  s :     2.891604
      pz      :     1.033671  p :     3.124994
      px      :     1.042312
      py      :     1.049010
      dz2     :     0.008715  d :     0.081491
      dxz     :     0.016415
      dyz     :     0.011243
      dx2y2   :     0.022265
      dxy     :     0.022852

 52 C s       :     2.878096  s :     2.878096
      pz      :     0.969967  p :     3.011419
      px      :     1.018184
      py      :     1.023267
      dz2     :     0.006760  d :     0.091705
      dxz     :     0.009923
      dyz     :     0.008885
      dx2y2   :     0.032193
      dxy     :     0.033943

 53 C s       :     2.866916  s :     2.866916
      pz      :     1.032396  p :     3.070101
      px      :     1.024809
      py      :     1.012896
      dz2     :     0.017926  d :     0.102854
      dxz     :     0.029434
      dyz     :     0.016505
      dx2y2   :     0.019958
      dxy     :     0.019031

 54 C s       :     2.872132  s :     2.872132
      pz      :     1.033215  p :     3.073026
      px      :     1.012340
      py      :     1.027472
      dz2     :     0.020041  d :     0.105208
      dxz     :     0.014837
      dyz     :     0.031635
      dx2y2   :     0.021077
      dxy     :     0.017617

 55 C s       :     3.006728  s :     3.006728
      pz      :     0.907241  p :     2.864746
      px      :     0.930744
      py      :     1.026761
      dz2     :     0.010695  d :     0.070004
      dxz     :     0.005877
      dyz     :     0.020843
      dx2y2   :     0.015715
      dxy     :     0.016873

 56 C s       :     2.894841  s :     2.894841
      pz      :     1.034563  p :     3.121569
      px      :     1.018577
      py      :     1.068429
      dz2     :     0.014932  d :     0.085080
      dxz     :     0.010543
      dyz     :     0.025955
      dx2y2   :     0.016406
      dxy     :     0.017244

 57 C s       :     2.906320  s :     2.906320
      pz      :     1.070720  p :     3.045442
      px      :     1.039223
      py      :     0.935499
      dz2     :     0.024458  d :     0.117570
      dxz     :     0.014470
      dyz     :     0.030769
      dx2y2   :     0.026090
      dxy     :     0.021782

 58 C s       :     2.892352  s :     2.892352
      pz      :     1.045341  p :     3.109544
      px      :     1.019931
      py      :     1.044272
      dz2     :     0.013907  d :     0.083146
      dxz     :     0.009050
      dyz     :     0.023611
      dx2y2   :     0.018237
      dxy     :     0.018340

 59 C s       :     2.911685  s :     2.911685
      pz      :     0.988559  p :     3.035328
      px      :     1.005993
      py      :     1.040776
      dz2     :     0.022989  d :     0.113690
      dxz     :     0.015678
      dyz     :     0.032724
      dx2y2   :     0.020437
      dxy     :     0.021861

 60 C s       :     2.909492  s :     2.909492
      pz      :     0.997274  p :     3.040332
      px      :     1.004447
      py      :     1.038611
      dz2     :     0.022071  d :     0.113246
      dxz     :     0.030898
      dyz     :     0.016226
      dx2y2   :     0.022517
      dxy     :     0.021533

 61 C s       :     2.892212  s :     2.892212
      pz      :     1.043252  p :     3.108256
      px      :     1.038641
      py      :     1.026363
      dz2     :     0.013237  d :     0.083451
      dxz     :     0.022519
      dyz     :     0.009842
      dx2y2   :     0.018518
      dxy     :     0.019335

 62 C s       :     2.904276  s :     2.904276
      pz      :     1.068510  p :     3.050106
      px      :     0.962305
      py      :     1.019291
      dz2     :     0.023416  d :     0.116802
      dxz     :     0.028082
      dyz     :     0.015945
      dx2y2   :     0.024237
      dxy     :     0.025121

 63 C s       :     2.892341  s :     2.892341
      pz      :     1.037140  p :     3.108272
      px      :     1.053748
      py      :     1.017384
      dz2     :     0.014993  d :     0.083453
      dxz     :     0.020116
      dyz     :     0.013632
      dx2y2   :     0.018207
      dxy     :     0.016506

 64 C s       :     2.909075  s :     2.909075
      pz      :     0.964922  p :     3.036574
      px      :     1.085212
      py      :     0.986440
      dz2     :     0.023215  d :     0.113272
      dxz     :     0.028148
      dyz     :     0.018255
      dx2y2   :     0.021797
      dxy     :     0.021858

 65 Cls       :     5.795831  s :     5.795831
      pz      :     3.681548  p :    11.106784
      px      :     3.564808
      py      :     3.860428
      dz2     :     0.004175  d :     0.033807
      dxz     :     0.014007
      dyz     :     0.003646
      dx2y2   :     0.005259
      dxy     :     0.006720

 66 Cls       :     5.797303  s :     5.797303
      pz      :     3.580397  p :    11.113844
      px      :     3.801629
      py      :     3.731818
      dz2     :     0.005714  d :     0.033872
      dxz     :     0.007803
      dyz     :     0.011960
      dx2y2   :     0.002492
      dxy     :     0.005903

 67 Cls       :     5.999065  s :     5.999065
      pz      :     3.997327  p :    10.999838
      px      :     3.007499
      py      :     3.995011
      dz2     :     0.000238  d :     0.000963
      dxz     :     0.000008
      dyz     :     0.000000
      dx2y2   :     0.000703
      dxy     :     0.000014

 68 Cls       :     5.805030  s :     5.805030
      pz      :     3.660635  p :    11.119235
      px      :     3.939195
      py      :     3.519404
      dz2     :     0.004096  d :     0.031449
      dxz     :     0.001365
      dyz     :     0.015861
      dx2y2   :     0.007898
      dxy     :     0.002229

 69 Cls       :     5.796956  s :     5.796956
      pz      :     3.608297  p :    11.108168
      px      :     3.602168
      py      :     3.897704
      dz2     :     0.005010  d :     0.034066
      dxz     :     0.016209
      dyz     :     0.003388
      dx2y2   :     0.004646
      dxy     :     0.004812

 70 Cls       :     5.796798  s :     5.796798
      pz      :     3.474359  p :    11.106396
      px      :     3.935082
      py      :     3.696955
      dz2     :     0.009782  d :     0.033956
      dxz     :     0.002978
      dyz     :     0.015734
      dx2y2   :     0.003931
      dxy     :     0.001530

 71 Cls       :     5.795192  s :     5.795192
      pz      :     3.926574  p :    11.117500
      px      :     3.928356
      py      :     3.262570
      dz2     :     0.005510  d :     0.033444
      dxz     :     0.000156
      dyz     :     0.005601
      dx2y2   :     0.016234
      dxy     :     0.005942

 72 Cls       :     5.795109  s :     5.795109
      pz      :     3.921501  p :    11.115315
      px      :     3.385533
      py      :     3.808282
      dz2     :     0.005388  d :     0.033399
      dxz     :     0.005127
      dyz     :     0.001025
      dx2y2   :     0.009624
      dxy     :     0.012235

 73 O s       :     3.446626  s :     3.446626
      pz      :     1.647350  p :     4.647061
      px      :     1.690667
      py      :     1.309045
      dz2     :     0.010818  d :     0.067561
      dxz     :     0.007951
      dyz     :     0.016289
      dx2y2   :     0.017884
      dxy     :     0.014619

 74 C s       :     2.906786  s :     2.906786
      pz      :     0.991276  p :     3.024132
      px      :     1.024488
      py      :     1.008368
      dz2     :     0.034429  d :     0.115316
      dxz     :     0.018430
      dyz     :     0.018703
      dx2y2   :     0.029317
      dxy     :     0.014436

 75 H s       :     0.863713  s :     0.863713
      pz      :     0.012790  p :     0.042957
      px      :     0.007091
      py      :     0.023076

 76 H s       :     0.883633  s :     0.883633
      pz      :     0.013428  p :     0.040413
      px      :     0.017166
      py      :     0.009820

 77 H s       :     0.873865  s :     0.873865
      pz      :     0.013135  p :     0.041455
      px      :     0.006400
      py      :     0.021920

 78 H s       :     0.873017  s :     0.873017
      pz      :     0.013859  p :     0.041358
      px      :     0.017987
      py      :     0.009513

 79 H s       :     0.873539  s :     0.873539
      pz      :     0.016176  p :     0.040563
      px      :     0.013362
      py      :     0.011025

 80 H s       :     0.872773  s :     0.872773
      pz      :     0.016364  p :     0.040949
      px      :     0.013448
      py      :     0.011137

 81 H s       :     0.878298  s :     0.878298
      pz      :     0.016712  p :     0.041773
      px      :     0.014330
      py      :     0.010731

 82 H s       :     0.874482  s :     0.874482
      pz      :     0.016420  p :     0.040571
      px      :     0.013278
      py      :     0.010873

 83 H s       :     0.874044  s :     0.874044
      pz      :     0.012606  p :     0.041500
      px      :     0.006419
      py      :     0.022476

 84 H s       :     0.883594  s :     0.883594
      pz      :     0.013067  p :     0.040406
      px      :     0.017182
      py      :     0.010158

 85 H s       :     0.863934  s :     0.863934
      pz      :     0.012207  p :     0.042964
      px      :     0.007103
      py      :     0.023654

 86 H s       :     0.872866  s :     0.872866
      pz      :     0.013605  p :     0.041375
      px      :     0.017959
      py      :     0.009812

 87 H s       :     0.865462  s :     0.865462
      pz      :     0.014636  p :     0.042715
      px      :     0.006202
      py      :     0.021877

 88 H s       :     0.855695  s :     0.855695
      pz      :     0.016656  p :     0.041938
      px      :     0.011643
      py      :     0.013640

 89 H s       :     0.855614  s :     0.855614
      pz      :     0.020409  p :     0.041944
      px      :     0.013202
      py      :     0.008333

 90 H s       :     0.855896  s :     0.855896
      pz      :     0.020000  p :     0.041934
      px      :     0.005516
      py      :     0.016418

 91 H s       :     0.855720  s :     0.855720
      pz      :     0.015140  p :     0.041950
      px      :     0.018975
      py      :     0.007835

 92 H s       :     0.865546  s :     0.865546
      pz      :     0.014337  p :     0.042700
      px      :     0.006206
      py      :     0.022157

 93 H s       :     0.859910  s :     0.859910
      pz      :     0.016175  p :     0.041487
      px      :     0.011815
      py      :     0.013498

 94 H s       :     0.856157  s :     0.856157
      pz      :     0.020476  p :     0.041852
      px      :     0.013231
      py      :     0.008144

 95 H s       :     0.855674  s :     0.855674
      pz      :     0.020278  p :     0.041960
      px      :     0.005541
      py      :     0.016141

 96 H s       :     0.855584  s :     0.855584
      pz      :     0.015340  p :     0.041971
      px      :     0.018884
      py      :     0.007747

 97 H s       :     0.880620  s :     0.880620
      pz      :     0.006557  p :     0.037955
      px      :     0.006452
      py      :     0.024946

 98 H s       :     0.896995  s :     0.896995
      pz      :     0.005655  p :     0.038555
      px      :     0.026604
      py      :     0.006296

 99 H s       :     0.896973  s :     0.896973
      pz      :     0.025083  p :     0.038546
      px      :     0.007273
      py      :     0.006189


SPIN
  0 C s       :    -0.000885  s :    -0.000885
      pz      :    -0.013027  p :    -0.022731
      px      :    -0.002592
      py      :    -0.007112
      dz2     :     0.000110  d :     0.000616
      dxz     :     0.000199
      dyz     :     0.000082
      dx2y2   :     0.000096
      dxy     :     0.000129

  1 C s       :     0.001219  s :     0.001219
      pz      :     0.011211  p :     0.020085
      px      :     0.003270
      py      :     0.005604
      dz2     :    -0.000206  d :    -0.002054
      dxz     :    -0.000800
      dyz     :    -0.000279
      dx2y2   :    -0.000492
      dxy     :    -0.000276

  2 C s       :    -0.000881  s :    -0.000881
      pz      :    -0.013447  p :    -0.022773
      px      :    -0.002913
      py      :    -0.006413
      dz2     :     0.000098  d :     0.000609
      dxz     :     0.000148
      dyz     :     0.000130
      dx2y2   :     0.000159
      dxy     :     0.000073

  3 C s       :     0.000597  s :     0.000597
      pz      :     0.007039  p :     0.011809
      px      :     0.001465
      py      :     0.003306
      dz2     :    -0.000160  d :    -0.000855
      dxz     :    -0.000314
      dyz     :    -0.000062
      dx2y2   :    -0.000103
      dxy     :    -0.000216

  4 C s       :    -0.000844  s :    -0.000844
      pz      :    -0.013232  p :    -0.021254
      px      :    -0.002167
      py      :    -0.005854
      dz2     :     0.000173  d :     0.000179
      dxz     :    -0.000122
      dyz     :    -0.000007
      dx2y2   :     0.000063
      dxy     :     0.000072

  5 C s       :     0.000628  s :     0.000628
      pz      :     0.007574  p :     0.012563
      px      :     0.001622
      py      :     0.003366
      dz2     :    -0.000133  d :    -0.000853
      dxz     :    -0.000207
      dyz     :    -0.000163
      dx2y2   :    -0.000302
      dxy     :    -0.000048

  6 N s       :    -0.000220  s :    -0.000220
      pz      :    -0.009580  p :    -0.009411
      px      :     0.000242
      py      :    -0.000072
      dz2     :     0.000014  d :    -0.000722
      dxz     :    -0.000278
      dyz     :    -0.000064
      dx2y2   :    -0.000336
      dxy     :    -0.000059

  7 C s       :    -0.000848  s :    -0.000848
      pz      :    -0.013848  p :    -0.021361
      px      :    -0.002123
      py      :    -0.005389
      dz2     :     0.000169  d :     0.000187
      dxz     :    -0.000120
      dyz     :     0.000004
      dx2y2   :     0.000063
      dxy     :     0.000071

  8 C s       :    -0.000008  s :    -0.000008
      pz      :     0.000847  p :     0.001698
      px      :     0.000897
      py      :    -0.000046
      dz2     :    -0.000021  d :    -0.000393
      dxz     :    -0.000008
      dyz     :    -0.000348
      dx2y2   :    -0.000023
      dxy     :     0.000007

  9 C s       :    -0.000087  s :    -0.000087
      pz      :    -0.000543  p :    -0.002089
      px      :    -0.001489
      py      :    -0.000057
      dz2     :     0.000015  d :     0.000065
      dxz     :     0.000005
      dyz     :     0.000015
      dx2y2   :     0.000009
      dxy     :     0.000020

 10 C s       :     0.000066  s :     0.000066
      pz      :     0.000497  p :     0.001299
      px      :     0.000737
      py      :     0.000066
      dz2     :    -0.000015  d :    -0.000089
      dxz     :    -0.000004
      dyz     :    -0.000014
      dx2y2   :    -0.000009
      dxy     :    -0.000048

 11 C s       :    -0.000081  s :    -0.000081
      pz      :    -0.000842  p :    -0.001902
      px      :    -0.001033
      py      :    -0.000028
      dz2     :     0.000020  d :     0.000038
      dxz     :     0.000008
      dyz     :     0.000001
      dx2y2   :     0.000007
      dxy     :     0.000001

 12 C s       :     0.000065  s :     0.000065
      pz      :     0.000466  p :     0.001224
      px      :     0.000689
      py      :     0.000070
      dz2     :    -0.000016  d :    -0.000099
      dxz     :    -0.000004
      dyz     :    -0.000016
      dx2y2   :    -0.000008
      dxy     :    -0.000054

 13 C s       :    -0.000099  s :    -0.000099
      pz      :    -0.000646  p :    -0.002436
      px      :    -0.001731
      py      :    -0.000059
      dz2     :     0.000015  d :     0.000064
      dxz     :     0.000006
      dyz     :     0.000014
      dx2y2   :     0.000009
      dxy     :     0.000019

 14 C s       :     0.000605  s :     0.000605
      pz      :     0.007417  p :     0.011933
      px      :     0.001452
      py      :     0.003064
      dz2     :    -0.000165  d :    -0.000867
      dxz     :    -0.000337
      dyz     :    -0.000060
      dx2y2   :    -0.000098
      dxy     :    -0.000206

 15 C s       :    -0.000897  s :    -0.000897
      pz      :    -0.014339  p :    -0.023143
      px      :    -0.002896
      py      :    -0.005908
      dz2     :     0.000095  d :     0.000618
      dxz     :     0.000150
      dyz     :     0.000143
      dx2y2   :     0.000155
      dxy     :     0.000074

 16 C s       :     0.001242  s :     0.001242
      pz      :     0.011846  p :     0.020438
      px      :     0.003299
      py      :     0.005292
      dz2     :    -0.000204  d :    -0.002089
      dxz     :    -0.000816
      dyz     :    -0.000300
      dx2y2   :    -0.000497
      dxy     :    -0.000272

 17 C s       :    -0.000889  s :    -0.000889
      pz      :    -0.013767  p :    -0.022847
      px      :    -0.002529
      py      :    -0.006551
      dz2     :     0.000115  d :     0.000625
      dxz     :     0.000211
      dyz     :     0.000080
      dx2y2   :     0.000094
      dxy     :     0.000125

 18 C s       :     0.000633  s :     0.000633
      pz      :     0.007963  p :     0.012705
      px      :     0.001610
      py      :     0.003133
      dz2     :    -0.000124  d :    -0.000858
      dxz     :    -0.000214
      dyz     :    -0.000186
      dx2y2   :    -0.000288
      dxy     :    -0.000047

 19 C s       :    -0.003336  s :    -0.003336
      pz      :    -0.051356  p :    -0.082539
      px      :    -0.008920
      py      :    -0.022263
      dz2     :     0.000858  d :     0.002289
      dxz     :     0.000397
      dyz     :     0.000343
      dx2y2   :     0.000382
      dxy     :     0.000310

 20 N s       :     0.001391  s :     0.001391
      pz      :     0.026152  p :     0.043016
      px      :     0.002613
      py      :     0.014252
      dz2     :    -0.000742  d :    -0.003949
      dxz     :    -0.000798
      dyz     :    -0.000517
      dx2y2   :    -0.001670
      dxy     :    -0.000222

 21 C s       :    -0.007930  s :    -0.007930
      pz      :    -0.039190  p :    -0.088150
      px      :    -0.022737
      py      :    -0.026223
      dz2     :     0.000685  d :     0.002949
      dxz     :     0.000927
      dyz     :     0.000223
      dx2y2   :     0.000749
      dxy     :     0.000364

 22 C s       :     0.008295  s :     0.008295
      pz      :     0.055778  p :     0.094226
      px      :     0.015987
      py      :     0.022462
      dz2     :    -0.000753  d :    -0.016891
      dxz     :    -0.009491
      dyz     :    -0.004909
      dx2y2   :    -0.000919
      dxy     :    -0.000819

 23 C s       :    -0.007451  s :    -0.007451
      pz      :    -0.038837  p :    -0.088681
      px      :    -0.009943
      py      :    -0.039901
      dz2     :     0.000751  d :     0.002946
      dxz     :     0.000548
      dyz     :     0.000551
      dx2y2   :     0.000797
      dxy     :     0.000299

 24 C s       :     0.002288  s :     0.002288
      pz      :     0.031172  p :     0.054371
      px      :     0.008174
      py      :     0.015026
      dz2     :    -0.000506  d :    -0.003419
      dxz     :    -0.000961
      dyz     :    -0.000216
      dx2y2   :    -0.000915
      dxy     :    -0.000820

 25 C s       :    -0.025142  s :    -0.025142
      pz      :    -0.593827  p :    -0.636592
      px      :    -0.022562
      py      :    -0.020203
      dz2     :     0.001909  d :     0.006422
      dxz     :     0.000825
      dyz     :     0.000514
      dx2y2   :     0.001412
      dxy     :     0.001761

 26 C s       :     0.007851  s :     0.007851
      pz      :     0.032328  p :     0.081721
      px      :     0.014541
      py      :     0.034852
      dz2     :    -0.001601  d :    -0.016238
      dxz     :    -0.010530
      dyz     :    -0.002519
      dx2y2   :    -0.000663
      dxy     :    -0.000924

 27 C s       :     0.007862  s :     0.007862
      pz      :     0.028976  p :     0.082397
      px      :     0.039757
      py      :     0.013664
      dz2     :    -0.001214  d :    -0.016184
      dxz     :    -0.000324
      dyz     :    -0.013098
      dx2y2   :    -0.000988
      dxy     :    -0.000559

 28 C s       :    -0.007362  s :    -0.007362
      pz      :    -0.017477  p :    -0.083944
      px      :    -0.060381
      py      :    -0.006086
      dz2     :     0.000546  d :     0.002515
      dxz     :     0.000281
      dyz     :     0.000475
      dx2y2   :     0.000195
      dxy     :     0.001018

 29 C s       :     0.002185  s :     0.002185
      pz      :     0.014882  p :     0.048101
      px      :     0.031486
      py      :     0.001733
      dz2     :    -0.000653  d :    -0.003316
      dxz     :    -0.000264
      dyz     :    -0.000370
      dx2y2   :    -0.000432
      dxy     :    -0.001596

 30 C s       :    -0.003389  s :    -0.003389
      pz      :    -0.026174  p :    -0.076201
      px      :    -0.048008
      py      :    -0.002019
      dz2     :     0.000768  d :     0.001963
      dxz     :     0.000381
      dyz     :     0.000194
      dx2y2   :     0.000338
      dxy     :     0.000283

 31 C s       :     0.002162  s :     0.002162
      pz      :     0.014738  p :     0.048064
      px      :     0.031337
      py      :     0.001990
      dz2     :    -0.000424  d :    -0.003328
      dxz     :    -0.000161
      dyz     :    -0.000492
      dx2y2   :    -0.000265
      dxy     :    -0.001986

 32 C s       :    -0.007406  s :    -0.007406
      pz      :    -0.016372  p :    -0.084028
      px      :    -0.062640
      py      :    -0.005015
      dz2     :     0.000684  d :     0.002492
      dxz     :     0.000334
      dyz     :     0.000426
      dx2y2   :     0.000172
      dxy     :     0.000876

 33 C s       :    -0.007428  s :    -0.007428
      pz      :    -0.019315  p :    -0.083332
      px      :    -0.006640
      py      :    -0.057377
      dz2     :     0.000737  d :     0.002473
      dxz     :     0.000475
      dyz     :     0.000267
      dx2y2   :     0.000625
      dxy     :     0.000368

 34 C s       :     0.002141  s :     0.002141
      pz      :     0.016871  p :     0.047640
      px      :     0.005097
      py      :     0.025672
      dz2     :    -0.000392  d :    -0.003303
      dxz     :    -0.000556
      dyz     :    -0.000188
      dx2y2   :    -0.000639
      dxy     :    -0.001528

 35 C s       :    -0.003357  s :    -0.003357
      pz      :    -0.029771  p :    -0.075442
      px      :    -0.006095
      py      :    -0.039576
      dz2     :     0.000798  d :     0.001947
      dxz     :     0.000215
      dyz     :     0.000310
      dx2y2   :     0.000276
      dxy     :     0.000348

 36 C s       :     0.002162  s :     0.002162
      pz      :     0.017117  p :     0.047699
      px      :     0.004150
      py      :     0.026432
      dz2     :    -0.000741  d :    -0.003299
      dxz     :    -0.000451
      dyz     :    -0.000176
      dx2y2   :    -0.001444
      dxy     :    -0.000487

 37 C s       :    -0.007451  s :    -0.007451
      pz      :    -0.021048  p :    -0.083452
      px      :    -0.016953
      py      :    -0.045451
      dz2     :     0.000517  d :     0.002494
      dxz     :     0.000527
      dyz     :     0.000280
      dx2y2   :     0.000438
      dxy     :     0.000731

 38 Cls       :    -0.000053  s :    -0.000053
      pz      :    -0.002498  p :    -0.003729
      px      :    -0.000131
      py      :    -0.001101
      dz2     :    -0.000311  d :    -0.000845
      dxz     :    -0.000088
      dyz     :    -0.000027
      dx2y2   :    -0.000050
      dxy     :    -0.000369

 39 Cls       :    -0.000054  s :    -0.000054
      pz      :    -0.000094  p :    -0.003089
      px      :    -0.003703
      py      :     0.000708
      dz2     :    -0.000196  d :    -0.000823
      dxz     :    -0.000155
      dyz     :    -0.000012
      dx2y2   :    -0.000116
      dxy     :    -0.000343

 40 Cls       :    -0.000078  s :    -0.000078
      pz      :     0.000731  p :    -0.003688
      px      :    -0.004056
      py      :    -0.000363
      dz2     :    -0.000243  d :    -0.000850
      dxz     :    -0.000257
      dyz     :     0.000008
      dx2y2   :    -0.000208
      dxy     :    -0.000151

 41 Cls       :    -0.000056  s :    -0.000056
      pz      :    -0.001640  p :    -0.005436
      px      :    -0.000356
      py      :    -0.003440
      dz2     :    -0.000318  d :    -0.000796
      dxz     :    -0.000009
      dyz     :    -0.000078
      dx2y2   :    -0.000337
      dxy     :    -0.000054

 42 Cls       :    -0.000052  s :    -0.000052
      pz      :    -0.000758  p :    -0.003056
      px      :     0.000401
      py      :    -0.002699
      dz2     :    -0.000203  d :    -0.000825
      dxz     :    -0.000042
      dyz     :    -0.000088
      dx2y2   :    -0.000031
      dxy     :    -0.000460

 43 Cls       :    -0.000081  s :    -0.000081
      pz      :     0.000413  p :    -0.003562
      px      :    -0.000309
      py      :    -0.003667
      dz2     :    -0.000275  d :    -0.000851
      dxz     :    -0.000020
      dyz     :    -0.000190
      dx2y2   :    -0.000366
      dxy     :    -0.000000

 44 Cls       :    -0.000150  s :    -0.000150
      pz      :    -0.002621  p :    -0.006363
      px      :    -0.006614
      py      :     0.002872
      dz2     :    -0.000022  d :    -0.000818
      dxz     :    -0.000001
      dyz     :    -0.000226
      dx2y2   :    -0.000077
      dxy     :    -0.000492

 45 Cls       :    -0.000148  s :    -0.000148
      pz      :    -0.003023  p :    -0.006227
      px      :     0.001655
      py      :    -0.004858
      dz2     :    -0.000031  d :    -0.000812
      dxz     :    -0.000244
      dyz     :    -0.000019
      dx2y2   :    -0.000248
      dxy     :    -0.000272

 46 C s       :    -0.003392  s :    -0.003392
      pz      :    -0.052984  p :    -0.083991
      px      :    -0.009278
      py      :    -0.021729
      dz2     :     0.000863  d :     0.002329
      dxz     :     0.000416
      dyz     :     0.000363
      dx2y2   :     0.000379
      dxy     :     0.000308

 47 N s       :     0.001437  s :     0.001437
      pz      :     0.026995  p :     0.043909
      px      :     0.002964
      py      :     0.013951
      dz2     :    -0.000709  d :    -0.004021
      dxz     :    -0.000821
      dyz     :    -0.000588
      dx2y2   :    -0.001684
      dxy     :    -0.000220

 48 C s       :    -0.007996  s :    -0.007996
      pz      :    -0.040268  p :    -0.088810
      px      :    -0.022991
      py      :    -0.025551
      dz2     :     0.000698  d :     0.002977
      dxz     :     0.000939
      dyz     :     0.000226
      dx2y2   :     0.000742
      dxy     :     0.000371

 49 C s       :     0.008056  s :     0.008056
      pz      :     0.056780  p :     0.094067
      px      :     0.015621
      py      :     0.021666
      dz2     :    -0.000717  d :    -0.017001
      dxz     :    -0.009697
      dyz     :    -0.004884
      dx2y2   :    -0.000886
      dxy     :    -0.000817

 50 C s       :    -0.007545  s :    -0.007545
      pz      :    -0.040489  p :    -0.090059
      px      :    -0.010231
      py      :    -0.039340
      dz2     :     0.000732  d :     0.002966
      dxz     :     0.000546
      dyz     :     0.000593
      dx2y2   :     0.000801
      dxy     :     0.000294

 51 C s       :     0.002320  s :     0.002320
      pz      :     0.032053  p :     0.055208
      px      :     0.008403
      py      :     0.014753
      dz2     :    -0.000533  d :    -0.003490
      dxz     :    -0.000985
      dyz     :    -0.000225
      dx2y2   :    -0.000922
      dxy     :    -0.000825

 52 C s       :    -0.022514  s :    -0.022514
      pz      :    -0.594418  p :    -0.631673
      px      :    -0.021316
      py      :    -0.015939
      dz2     :     0.001892  d :     0.005529
      dxz     :     0.000864
      dyz     :     0.000360
      dx2y2   :     0.001414
      dxy     :     0.000999

 53 C s       :     0.007794  s :     0.007794
      pz      :     0.032155  p :     0.083897
      px      :     0.014626
      py      :     0.037117
      dz2     :    -0.001668  d :    -0.016495
      dxz     :    -0.010711
      dyz     :    -0.002545
      dx2y2   :    -0.000637
      dxy     :    -0.000933

 54 C s       :     0.007763  s :     0.007763
      pz      :     0.024231  p :     0.050708
      px      :     0.013618
      py      :     0.012859
      dz2     :     0.003239  d :    -0.001549
      dxz     :     0.002951
      dyz     :    -0.011816
      dx2y2   :     0.003906
      dxy     :     0.000171

 55 C s       :     0.125961  s :     0.125961
      pz      :     0.437130  p :     0.721383
      px      :     0.188583
      py      :     0.095670
      dz2     :    -0.000327  d :     0.000874
      dxz     :     0.000078
      dyz     :    -0.000062
      dx2y2   :     0.000714
      dxy     :     0.000471

 56 C s       :     0.001148  s :     0.001148
      pz      :    -0.002631  p :     0.003679
      px      :    -0.003920
      py      :     0.010230
      dz2     :     0.000405  d :     0.013940
      dxz     :     0.000429
      dyz     :     0.008838
      dx2y2   :     0.000755
      dxy     :     0.003513

 57 C s       :     0.008910  s :     0.008910
      pz      :    -0.005062  p :    -0.030700
      px      :    -0.023396
      py      :    -0.002242
      dz2     :    -0.000002  d :     0.000487
      dxz     :     0.000034
      dyz     :    -0.000058
      dx2y2   :     0.000456
      dxy     :     0.000057

 58 C s       :     0.000627  s :     0.000627
      pz      :     0.000750  p :     0.002776
      px      :     0.001636
      py      :     0.000389
      dz2     :    -0.000207  d :    -0.002220
      dxz     :    -0.000066
      dyz     :    -0.000310
      dx2y2   :    -0.000077
      dxy     :    -0.001559

 59 C s       :     0.003951  s :     0.003951
      pz      :    -0.003987  p :    -0.044146
      px      :    -0.042108
      py      :     0.001950
      dz2     :     0.000286  d :     0.001908
      dxz     :     0.000461
      dyz     :     0.000815
      dx2y2   :    -0.000107
      dxy     :     0.000453

 60 C s       :    -0.007684  s :    -0.007684
      pz      :    -0.019675  p :    -0.087620
      px      :    -0.007157
      py      :    -0.060788
      dz2     :     0.000759  d :     0.002596
      dxz     :     0.000499
      dyz     :     0.000281
      dx2y2   :     0.000678
      dxy     :     0.000380

 61 C s       :     0.002279  s :     0.002279
      pz      :     0.017163  p :     0.050448
      px      :     0.005507
      py      :     0.027778
      dz2     :    -0.000409  d :    -0.003494
      dxz     :    -0.000565
      dyz     :    -0.000208
      dx2y2   :    -0.000687
      dxy     :    -0.001625

 62 C s       :    -0.003528  s :    -0.003528
      pz      :    -0.030122  p :    -0.079273
      px      :    -0.006628
      py      :    -0.042524
      dz2     :     0.000831  d :     0.002058
      dxz     :     0.000227
      dyz     :     0.000340
      dx2y2   :     0.000289
      dxy     :     0.000370

 63 C s       :     0.002260  s :     0.002260
      pz      :     0.017348  p :     0.050174
      px      :     0.004593
      py      :     0.028234
      dz2     :    -0.000771  d :    -0.003483
      dxz     :    -0.000469
      dyz     :    -0.000193
      dx2y2   :    -0.001533
      dxy     :    -0.000517

 64 C s       :    -0.007532  s :    -0.007532
      pz      :    -0.021059  p :    -0.087369
      px      :    -0.017622
      py      :    -0.048688
      dz2     :     0.000522  d :     0.002565
      dxz     :     0.000523
      dyz     :     0.000305
      dx2y2   :     0.000438
      dxy     :     0.000776

 65 Cls       :    -0.000055  s :    -0.000055
      pz      :    -0.002537  p :    -0.003752
      px      :    -0.000210
      py      :    -0.001005
      dz2     :    -0.000325  d :    -0.000874
      dxz     :    -0.000088
      dyz     :    -0.000027
      dx2y2   :    -0.000054
      dxy     :    -0.000381

 66 Cls       :     0.000335  s :     0.000335
      pz      :     0.011429  p :     0.013175
      px      :     0.001989
      py      :    -0.000244
      dz2     :    -0.000036  d :    -0.000556
      dxz     :    -0.000103
      dyz     :    -0.000065
      dx2y2   :    -0.000034
      dxy     :    -0.000318

 67 Cls       :    -0.000754  s :    -0.000754
      pz      :     0.002662  p :     0.999898
      px      :     0.992492
      py      :     0.004744
      dz2     :     0.000189  d :     0.000757
      dxz     :     0.000006
      dyz     :     0.000000
      dx2y2   :     0.000552
      dxy     :     0.000010

 68 Cls       :    -0.000052  s :    -0.000052
      pz      :    -0.001765  p :    -0.005292
      px      :    -0.000213
      py      :    -0.003314
      dz2     :    -0.000320  d :    -0.000813
      dxz     :    -0.000014
      dyz     :    -0.000084
      dx2y2   :    -0.000342
      dxy     :    -0.000053

 69 Cls       :    -0.000053  s :    -0.000053
      pz      :    -0.000649  p :    -0.003247
      px      :     0.000321
      py      :    -0.002920
      dz2     :    -0.000215  d :    -0.000885
      dxz     :    -0.000045
      dyz     :    -0.000101
      dx2y2   :    -0.000036
      dxy     :    -0.000488

 70 Cls       :    -0.000111  s :    -0.000111
      pz      :     0.000621  p :    -0.004099
      px      :    -0.000606
      py      :    -0.004113
      dz2     :    -0.000288  d :    -0.000906
      dxz     :    -0.000034
      dyz     :    -0.000213
      dx2y2   :    -0.000368
      dxy     :    -0.000003

 71 Cls       :    -0.000053  s :    -0.000053
      pz      :     0.000169  p :     0.005805
      px      :    -0.003957
      py      :     0.009593
      dz2     :    -0.000051  d :    -0.000450
      dxz     :    -0.000001
      dyz     :     0.000011
      dx2y2   :    -0.000154
      dxy     :    -0.000256

 72 Cls       :    -0.000154  s :    -0.000154
      pz      :    -0.003017  p :    -0.006444
      px      :     0.001721
      py      :    -0.005147
      dz2     :    -0.000032  d :    -0.000860
      dxz     :    -0.000249
      dyz     :    -0.000018
      dx2y2   :    -0.000269
      dxy     :    -0.000291

 73 O s       :    -0.000012  s :    -0.000012
      pz      :    -0.000179  p :    -0.000417
      px      :    -0.000259
      py      :     0.000021
      dz2     :    -0.000000  d :    -0.000029
      dxz     :     0.000000
      dyz     :    -0.000012
      dx2y2   :    -0.000001
      dxy     :    -0.000015

 74 C s       :     0.000003  s :     0.000003
      pz      :     0.000009  p :     0.000022
      px      :     0.000008
      py      :     0.000005
      dz2     :    -0.000010  d :    -0.000013
      dxz     :    -0.000001
      dyz     :    -0.000000
      dx2y2   :    -0.000003
      dxy     :    -0.000000

 75 H s       :     0.000635  s :     0.000635
      pz      :    -0.000181  p :    -0.000327
      px      :    -0.000051
      py      :    -0.000095

 76 H s       :     0.000687  s :     0.000687
      pz      :    -0.000193  p :    -0.000330
      px      :    -0.000053
      py      :    -0.000084

 77 H s       :    -0.000328  s :    -0.000328
      pz      :     0.000099  p :     0.000180
      px      :     0.000023
      py      :     0.000058

 78 H s       :    -0.000354  s :    -0.000354
      pz      :     0.000102  p :     0.000184
      px      :     0.000034
      py      :     0.000048

 79 H s       :     0.000068  s :     0.000068
      pz      :    -0.000011  p :    -0.000034
      px      :    -0.000015
      py      :    -0.000009

 80 H s       :    -0.000052  s :    -0.000052
      pz      :     0.000008  p :     0.000020
      px      :     0.000010
      py      :     0.000002

 81 H s       :    -0.000048  s :    -0.000048
      pz      :     0.000008  p :     0.000019
      px      :     0.000010
      py      :     0.000002

 82 H s       :     0.000078  s :     0.000078
      pz      :    -0.000013  p :    -0.000039
      px      :    -0.000017
      py      :    -0.000009

 83 H s       :    -0.000331  s :    -0.000331
      pz      :     0.000103  p :     0.000182
      px      :     0.000023
      py      :     0.000056

 84 H s       :     0.000698  s :     0.000698
      pz      :    -0.000205  p :    -0.000337
      px      :    -0.000053
      py      :    -0.000079

 85 H s       :     0.000576  s :     0.000576
      pz      :    -0.000187  p :    -0.000326
      px      :    -0.000051
      py      :    -0.000088

 86 H s       :    -0.000359  s :    -0.000359
      pz      :     0.000107  p :     0.000186
      px      :     0.000034
      py      :     0.000045

 87 H s       :    -0.002071  s :    -0.002071
      pz      :     0.000437  p :     0.000832
      px      :     0.000125
      py      :     0.000270

 88 H s       :    -0.001831  s :    -0.001831
      pz      :     0.000226  p :     0.000721
      px      :     0.000435
      py      :     0.000059

 89 H s       :    -0.001872  s :    -0.001872
      pz      :     0.000251  p :     0.000720
      px      :     0.000436
      py      :     0.000033

 90 H s       :    -0.001859  s :    -0.001859
      pz      :     0.000278  p :     0.000714
      px      :     0.000066
      py      :     0.000371

 91 H s       :    -0.001830  s :    -0.001830
      pz      :     0.000248  p :     0.000715
      px      :     0.000108
      py      :     0.000359

 92 H s       :    -0.002095  s :    -0.002095
      pz      :     0.000448  p :     0.000845
      px      :     0.000128
      py      :     0.000269

 93 H s       :     0.013999  s :     0.013999
      pz      :    -0.000106  p :    -0.000404
      px      :    -0.000088
      py      :    -0.000209

 94 H s       :    -0.000732  s :    -0.000732
      pz      :     0.000023  p :     0.000038
      px      :     0.000020
      py      :    -0.000005

 95 H s       :    -0.001935  s :    -0.001935
      pz      :     0.000287  p :     0.000757
      px      :     0.000072
      py      :     0.000399

 96 H s       :    -0.001910  s :    -0.001910
      pz      :     0.000255  p :     0.000753
      px      :     0.000115
      py      :     0.000382

 97 H s       :     0.000001  s :     0.000001
      pz      :     0.000000  p :     0.000000
      px      :     0.000000
      py      :    -0.000000

 98 H s       :    -0.000024  s :    -0.000024
      pz      :     0.000000  p :    -0.000000
      px      :    -0.000000
      py      :     0.000000

 99 H s       :    -0.000024  s :    -0.000024
      pz      :    -0.000000  p :     0.000000
      px      :     0.000000
      py      :     0.000000



                      *****************************
                      * MAYER POPULATION ANALYSIS *
                      *****************************

  NA   - Mulliken gross atomic population
  ZA   - Total nuclear charge
  QA   - Mulliken gross atomic charge
  VA   - Mayer's total valence
  BVA  - Mayer's bonded valence
  FA   - Mayer's free valence

  ATOM       NA         ZA         QA         VA         BVA        FA
  0 C      6.1174     6.0000    -0.1174     3.9266     3.9261     0.0006
  1 C      5.9264     6.0000     0.0736     3.9656     3.9651     0.0005
  2 C      6.1309     6.0000    -0.1309     3.9447     3.9442     0.0006
  3 C      6.1263     6.0000    -0.1263     3.9252     3.9251     0.0002
  4 C      5.7561     6.0000     0.2439     3.9504     3.9498     0.0006
  5 C      6.1204     6.0000    -0.1204     3.8888     3.8886     0.0002
  6 N      7.5610     7.0000    -0.5610     2.9725     2.9724     0.0001
  7 C      5.7553     6.0000     0.2447     3.9474     3.9468     0.0006
  8 C      5.8261     6.0000     0.1739     3.9706     3.9706     0.0000
  9 C      6.0905     6.0000    -0.0905     3.9259     3.9259     0.0000
 10 C      6.1335     6.0000    -0.1335     3.9319     3.9318     0.0000
 11 C      5.6684     6.0000     0.3316     3.8776     3.8776     0.0000
 12 C      6.1620     6.0000    -0.1620     3.9011     3.9011     0.0000
 13 C      6.0975     6.0000    -0.0975     3.9360     3.9360     0.0000
 14 C      6.1273     6.0000    -0.1273     3.9253     3.9251     0.0002
 15 C      6.1306     6.0000    -0.1306     3.9453     3.9447     0.0006
 16 C      5.9259     6.0000     0.0741     3.9652     3.9647     0.0005
 17 C      6.1165     6.0000    -0.1165     3.9268     3.9263     0.0006
 18 C      6.1209     6.0000    -0.1209     3.8893     3.8891     0.0002
 19 C      5.8094     6.0000     0.1906     4.0027     3.9949     0.0078
 20 N      7.3714     7.0000    -0.3714     3.0316     3.0293     0.0023
 21 C      5.9725     6.0000     0.0275     3.9760     3.9669     0.0091
 22 C      5.8790     6.0000     0.1210     3.8841     3.8718     0.0124
 23 C      6.1067     6.0000    -0.1067     3.9651     3.9560     0.0091
 24 C      6.0826     6.0000    -0.0826     3.8343     3.8308     0.0035
 25 C      6.1051     6.0000    -0.1051     3.9242     3.4821     0.4421
 26 C      5.8678     6.0000     0.1322     3.9258     3.9164     0.0095
 27 C      5.8633     6.0000     0.1367     3.9279     3.9183     0.0096
 28 C      6.1250     6.0000    -0.1250     3.9694     3.9614     0.0081
 29 C      6.0454     6.0000    -0.0454     3.8920     3.8892     0.0028
 30 C      6.0946     6.0000    -0.0946     3.9846     3.9779     0.0066
 31 C      6.0447     6.0000    -0.0447     3.8925     3.8897     0.0028
 32 C      6.1239     6.0000    -0.1239     3.9678     3.9598     0.0081
 33 C      6.1249     6.0000    -0.1249     3.9680     3.9600     0.0079
 34 C      6.0458     6.0000    -0.0458     3.8917     3.8889     0.0027
 35 C      6.0950     6.0000    -0.0950     3.9835     3.9770     0.0065
 36 C      6.0460     6.0000    -0.0460     3.8917     3.8890     0.0027
 37 C      6.1261     6.0000    -0.1261     3.9688     3.9608     0.0080
 38 Cl    16.9787    17.0000     0.0213     1.1409     1.1408     0.0001
 39 Cl    16.9852    17.0000     0.0148     1.1332     1.1331     0.0001
 40 Cl    16.9828    17.0000     0.0172     1.1351     1.1350     0.0001
 41 Cl    16.9862    17.0000     0.0138     1.1466     1.1465     0.0001
 42 Cl    16.9813    17.0000     0.0187     1.1364     1.1363     0.0001
 43 Cl    16.9828    17.0000     0.0172     1.1351     1.1351     0.0001
 44 Cl    16.9934    17.0000     0.0066     1.1039     1.1038     0.0001
 45 Cl    16.9943    17.0000     0.0057     1.1030     1.1029     0.0001
 46 C      5.8096     6.0000     0.1904     4.0031     3.9950     0.0081
 47 N      7.3722     7.0000    -0.3722     3.0309     3.0286     0.0024
 48 C      5.9717     6.0000     0.0283     3.9756     3.9664     0.0092
 49 C      5.8809     6.0000     0.1191     3.8826     3.8702     0.0124
 50 C      6.1064     6.0000    -0.1064     3.9644     3.9551     0.0094
 51 C      6.0822     6.0000    -0.0822     3.8351     3.8315     0.0036
 52 C      6.0838     6.0000    -0.0838     3.9182     3.4723     0.4459
 53 C      5.8624     6.0000     0.1376     3.9254     3.9155     0.0099
 54 C      5.9513     6.0000     0.0487     3.9439     3.9390     0.0049
 55 C      5.9709     6.0000     0.0291     3.8263     3.0596     0.7666
 56 C      6.1070     6.0000    -0.1070     3.9295     3.9269     0.0025
 57 C      6.0824     6.0000    -0.0824     4.0008     3.9974     0.0034
 58 C      6.0481     6.0000    -0.0481     3.9040     3.9040     0.0000
 59 C      6.1069     6.0000    -0.1069     3.9925     3.9883     0.0042
 60 C      6.1369     6.0000    -0.1369     3.9676     3.9588     0.0088
 61 C      6.0459     6.0000    -0.0459     3.8906     3.8876     0.0030
 62 C      6.0956     6.0000    -0.0956     3.9835     3.9763     0.0072
 63 C      6.0475     6.0000    -0.0475     3.8900     3.8870     0.0030
 64 C      6.1298     6.0000    -0.1298     3.9704     3.9616     0.0088
 65 Cl    16.9799    17.0000     0.0201     1.1385     1.1384     0.0001
 66 Cl    16.9891    17.0000     0.0109     1.1284     1.1279     0.0005
 67 Cl    16.9995    17.0000     0.0005     1.0052     0.0020     1.0032
 68 Cl    16.9911    17.0000     0.0089     1.1449     1.1448     0.0001
 69 Cl    16.9813    17.0000     0.0187     1.1326     1.1325     0.0001
 70 Cl    16.9803    17.0000     0.0197     1.1387     1.1386     0.0001
 71 Cl    16.9967    17.0000     0.0033     1.0998     1.0995     0.0003
 72 Cl    16.9938    17.0000     0.0062     1.1034     1.1033     0.0001
 73 O      8.4872     8.0000    -0.4872     2.0065     2.0065     0.0000
 74 C      6.0796     6.0000    -0.0796     3.8233     3.8233     0.0000
 75 H      0.8673     1.0000     0.1327     0.9680     0.9680     0.0000
 76 H      0.9080     1.0000     0.0920     0.9610     0.9610     0.0000
 77 H      0.8911     1.0000     0.1089     0.9660     0.9660     0.0000
 78 H      0.8871     1.0000     0.1129     0.9649     0.9649     0.0000
 79 H      0.8904     1.0000     0.1096     0.9620     0.9620     0.0000
 80 H      0.8923     1.0000     0.1077     0.9626     0.9626     0.0000
 81 H      0.9015     1.0000     0.0985     0.9658     0.9658     0.0000
 82 H      0.8916     1.0000     0.1084     0.9629     0.9629     0.0000
 83 H      0.8916     1.0000     0.1084     0.9663     0.9663     0.0000
 84 H      0.9079     1.0000     0.0921     0.9610     0.9610     0.0000
 85 H      0.8681     1.0000     0.1319     0.9691     0.9691     0.0000
 86 H      0.8867     1.0000     0.1133     0.9648     0.9648     0.0000
 87 H      0.8743     1.0000     0.1257     0.9620     0.9620     0.0000
 88 H      0.8545     1.0000     0.1455     0.9585     0.9584     0.0000
 89 H      0.8544     1.0000     0.1456     0.9584     0.9584     0.0000
 90 H      0.8549     1.0000     0.1451     0.9586     0.9586     0.0000
 91 H      0.8545     1.0000     0.1455     0.9584     0.9584     0.0000
 92 H      0.8744     1.0000     0.1256     0.9620     0.9619     0.0000
 93 H      0.8635     1.0000     0.1365     0.9577     0.9574     0.0003
 94 H      0.8540     1.0000     0.1460     0.9575     0.9575     0.0000
 95 H      0.8543     1.0000     0.1457     0.9585     0.9584     0.0000
 96 H      0.8540     1.0000     0.1460     0.9583     0.9583     0.0000
 97 H      0.8704     1.0000     0.1296     0.9554     0.9554     0.0000
 98 H      0.8881     1.0000     0.1119     0.9510     0.9510     0.0000
 99 H      0.8879     1.0000     0.1121     0.9509     0.9509     0.0000

  Mayer bond orders larger than 0.100000
B(  0-C ,  1-C ) :   1.3843 B(  0-C ,  5-C ) :   1.4435 B(  0-C , 75-H ) :   0.9240 
B(  1-C ,  2-C ) :   1.3954 B(  1-C , 19-C ) :   1.0582 B(  2-C ,  3-C ) :   1.4524 
B(  2-C , 76-H ) :   0.9365 B(  3-C ,  4-C ) :   1.3928 B(  3-C , 77-H ) :   0.9330 
B(  4-C ,  5-C ) :   1.3789 B(  4-C ,  6-N ) :   0.9589 B(  5-C , 78-H ) :   0.9349 
B(  6-N ,  7-C ) :   0.9577 B(  6-N ,  8-C ) :   0.9151 B(  7-C , 14-C ) :   1.3933 
B(  7-C , 18-C ) :   1.3774 B(  8-C ,  9-C ) :   1.3937 B(  8-C , 13-C ) :   1.4431 
B(  9-C , 10-C ) :   1.4673 B(  9-C , 79-H ) :   0.9382 B( 10-C , 11-C ) :   1.3805 
B( 10-C , 80-H ) :   0.9370 B( 11-C , 12-C ) :   1.3816 B( 11-C , 73-O ) :   0.9748 
B( 12-C , 13-C ) :   1.4101 B( 12-C , 81-H ) :   0.9344 B( 13-C , 82-H ) :   0.9379 
B( 14-C , 15-C ) :   1.4511 B( 14-C , 83-H ) :   0.9327 B( 15-C , 16-C ) :   1.3970 
B( 15-C , 84-H ) :   0.9365 B( 16-C , 17-C ) :   1.3832 B( 16-C , 46-C ) :   1.0576 
B( 17-C , 18-C ) :   1.4453 B( 17-C , 85-H ) :   0.9235 B( 18-C , 86-H ) :   0.9349 
B( 19-C , 20-N ) :   1.3689 B( 19-C , 24-C ) :   1.3607 B( 20-N , 21-C ) :   1.4898 
B( 21-C , 22-C ) :   1.2462 B( 21-C , 41-Cl) :   1.0645 B( 22-C , 23-C ) :   1.3256 
B( 22-C , 25-C ) :   1.0793 B( 23-C , 24-C ) :   1.4087 B( 23-C , 38-Cl) :   1.0632 
B( 24-C , 87-H ) :   0.9254 B( 25-C , 26-C ) :   1.0642 B( 25-C , 27-C ) :   1.0640 
B( 26-C , 33-C ) :   1.3319 B( 26-C , 37-C ) :   1.3335 B( 27-C , 28-C ) :   1.3331 
B( 27-C , 32-C ) :   1.3321 B( 28-C , 29-C ) :   1.4169 B( 28-C , 40-Cl) :   1.0549 
B( 29-C , 30-C ) :   1.4027 B( 29-C , 88-H ) :   0.9332 B( 30-C , 31-C ) :   1.4023 
B( 30-C , 44-Cl) :   1.0360 B( 31-C , 32-C ) :   1.4180 B( 31-C , 89-H ) :   0.9331 
B( 32-C , 39-Cl) :   1.0533 B( 33-C , 34-C ) :   1.4171 B( 33-C , 42-Cl) :   1.0558 
B( 34-C , 35-C ) :   1.4022 B( 34-C , 90-H ) :   0.9333 B( 35-C , 36-C ) :   1.4031 
B( 35-C , 45-Cl) :   1.0354 B( 36-C , 37-C ) :   1.4162 B( 36-C , 91-H ) :   0.9332 
B( 37-C , 43-Cl) :   1.0552 B( 46-C , 47-N ) :   1.3691 B( 46-C , 51-C ) :   1.3613 
B( 47-N , 48-C ) :   1.4892 B( 48-C , 49-C ) :   1.2478 B( 48-C , 68-Cl) :   1.0628 
B( 49-C , 50-C ) :   1.3260 B( 49-C , 52-C ) :   1.0811 B( 50-C , 51-C ) :   1.4087 
B( 50-C , 65-Cl) :   1.0617 B( 51-C , 92-H ) :   0.9255 B( 52-C , 53-C ) :   1.0752 
B( 52-C , 54-C ) :   1.0412 B( 53-C , 60-C ) :   1.3324 B( 53-C , 64-C ) :   1.3299 
B( 54-C , 55-C ) :   1.3710 B( 54-C , 59-C ) :   1.3510 B( 55-C , 56-C ) :   1.4698 
B( 56-C , 57-C ) :   1.3967 B( 56-C , 93-H ) :   0.9336 B( 57-C , 58-C ) :   1.4208 
B( 57-C , 71-Cl) :   1.0309 B( 58-C , 59-C ) :   1.4209 B( 58-C , 94-H ) :   0.9322 
B( 59-C , 66-Cl) :   1.0461 B( 60-C , 61-C ) :   1.4140 B( 60-C , 69-Cl) :   1.0550 
B( 61-C , 62-C ) :   1.4039 B( 61-C , 95-H ) :   0.9333 B( 62-C , 63-C ) :   1.4009 
B( 62-C , 72-Cl) :   1.0358 B( 63-C , 64-C ) :   1.4170 B( 63-C , 96-H ) :   0.9333 
B( 64-C , 70-Cl) :   1.0570 B( 73-O , 74-C ) :   0.9185 B( 74-C , 97-H ) :   0.9678 
B( 74-C , 98-H ) :   0.9496 B( 74-C , 99-H ) :   0.9498 

-------------------------
FLIP-SPIN BROKEN SYMMETRY
-------------------------

 Flipping spin on atom C  25
Before flipping the spin we have:
Multiplicity                     ... 1
Number of unpaired electrons     ... 0
Number of spin-up electrons      ... 328
Number of spin-down electrons    ... 328
HOMO spin-up                     ... 327
HOMO spin-down                   ... 327
After flipping the spin we have:
Multiplicity                     ... 1
Number of unpaired electrons     ... 0
Number of spin-up electrons      ... 328
Number of spin-down electrons    ... 328
HOMO spin-up                     ... 327
HOMO spin-down                   ... 327

                      ******************************************
                               F L I P    S P I N
                           -----------------------------
                           Broken Symmetry SCF calculation
                                   MS(BS) =   0.0
                      ******************************************
 
The new occupation numbers
   0:    1.000    1.000
   1:    1.000    1.000
   2:    1.000    1.000
   3:    1.000    1.000
   4:    1.000    1.000
   5:    1.000    1.000
   6:    1.000    1.000
   7:    1.000    1.000
   8:    1.000    1.000
   9:    1.000    1.000
  10:    1.000    1.000
  11:    1.000    1.000
  12:    1.000    1.000
  13:    1.000    1.000
  14:    1.000    1.000
  15:    1.000    1.000
  16:    1.000    1.000
  17:    1.000    1.000
  18:    1.000    1.000
  19:    1.000    1.000
  20:    1.000    1.000
  21:    1.000    1.000
  22:    1.000    1.000
  23:    1.000    1.000
  24:    1.000    1.000
  25:    1.000    1.000
  26:    1.000    1.000
  27:    1.000    1.000
  28:    1.000    1.000
  29:    1.000    1.000
  30:    1.000    1.000
  31:    1.000    1.000
  32:    1.000    1.000
  33:    1.000    1.000
  34:    1.000    1.000
  35:    1.000    1.000
  36:    1.000    1.000
  37:    1.000    1.000
  38:    1.000    1.000
  39:    1.000    1.000
  40:    1.000    1.000
  41:    1.000    1.000
  42:    1.000    1.000
  43:    1.000    1.000
  44:    1.000    1.000
  45:    1.000    1.000
  46:    1.000    1.000
  47:    1.000    1.000
  48:    1.000    1.000
  49:    1.000    1.000
  50:    1.000    1.000
  51:    1.000    1.000
  52:    1.000    1.000
  53:    1.000    1.000
  54:    1.000    1.000
  55:    1.000    1.000
  56:    1.000    1.000
  57:    1.000    1.000
  58:    1.000    1.000
  59:    1.000    1.000
  60:    1.000    1.000
  61:    1.000    1.000
  62:    1.000    1.000
  63:    1.000    1.000
  64:    1.000    1.000
  65:    1.000    1.000
  66:    1.000    1.000
  67:    1.000    1.000
  68:    1.000    1.000
  69:    1.000    1.000
  70:    1.000    1.000
  71:    1.000    1.000
  72:    1.000    1.000
  73:    1.000    1.000
  74:    1.000    1.000
  75:    1.000    1.000
  76:    1.000    1.000
  77:    1.000    1.000
  78:    1.000    1.000
  79:    1.000    1.000
  80:    1.000    1.000
  81:    1.000    1.000
  82:    1.000    1.000
  83:    1.000    1.000
  84:    1.000    1.000
  85:    1.000    1.000
  86:    1.000    1.000
  87:    1.000    1.000
  88:    1.000    1.000
  89:    1.000    1.000
  90:    1.000    1.000
  91:    1.000    1.000
  92:    1.000    1.000
  93:    1.000    1.000
  94:    1.000    1.000
  95:    1.000    1.000
  96:    1.000    1.000
  97:    1.000    1.000
  98:    1.000    1.000
  99:    1.000    1.000
 100:    1.000    1.000
 101:    1.000    1.000
 102:    1.000    1.000
 103:    1.000    1.000
 104:    1.000    1.000
 105:    1.000    1.000
 106:    1.000    1.000
 107:    1.000    1.000
 108:    1.000    1.000
 109:    1.000    1.000
 110:    1.000    1.000
 111:    1.000    1.000
 112:    1.000    1.000
 113:    1.000    1.000
 114:    1.000    1.000
 115:    1.000    1.000
 116:    1.000    1.000
 117:    1.000    1.000
 118:    1.000    1.000
 119:    1.000    1.000
 120:    1.000    1.000
 121:    1.000    1.000
 122:    1.000    1.000
 123:    1.000    1.000
 124:    1.000    1.000
 125:    1.000    1.000
 126:    1.000    1.000
 127:    1.000    1.000
 128:    1.000    1.000
 129:    1.000    1.000
 130:    1.000    1.000
 131:    1.000    1.000
 132:    1.000    1.000
 133:    1.000    1.000
 134:    1.000    1.000
 135:    1.000    1.000
 136:    1.000    1.000
 137:    1.000    1.000
 138:    1.000    1.000
 139:    1.000    1.000
 140:    1.000    1.000
 141:    1.000    1.000
 142:    1.000    1.000
 143:    1.000    1.000
 144:    1.000    1.000
 145:    1.000    1.000
 146:    1.000    1.000
 147:    1.000    1.000
 148:    1.000    1.000
 149:    1.000    1.000
 150:    1.000    1.000
 151:    1.000    1.000
 152:    1.000    1.000
 153:    1.000    1.000
 154:    1.000    1.000
 155:    1.000    1.000
 156:    1.000    1.000
 157:    1.000    1.000
 158:    1.000    1.000
 159:    1.000    1.000
 160:    1.000    1.000
 161:    1.000    1.000
 162:    1.000    1.000
 163:    1.000    1.000
 164:    1.000    1.000
 165:    1.000    1.000
 166:    1.000    1.000
 167:    1.000    1.000
 168:    1.000    1.000
 169:    1.000    1.000
 170:    1.000    1.000
 171:    1.000    1.000
 172:    1.000    1.000
 173:    1.000    1.000
 174:    1.000    1.000
 175:    1.000    1.000
 176:    1.000    1.000
 177:    1.000    1.000
 178:    1.000    1.000
 179:    1.000    1.000
 180:    1.000    1.000
 181:    1.000    1.000
 182:    1.000    1.000
 183:    1.000    1.000
 184:    1.000    1.000
 185:    1.000    1.000
 186:    1.000    1.000
 187:    1.000    1.000
 188:    1.000    1.000
 189:    1.000    1.000
 190:    1.000    1.000
 191:    1.000    1.000
 192:    1.000    1.000
 193:    1.000    1.000
 194:    1.000    1.000
 195:    1.000    1.000
 196:    1.000    1.000
 197:    1.000    1.000
 198:    1.000    1.000
 199:    1.000    1.000
 200:    1.000    1.000
 201:    1.000    1.000
 202:    1.000    1.000
 203:    1.000    1.000
 204:    1.000    1.000
 205:    1.000    1.000
 206:    1.000    1.000
 207:    1.000    1.000
 208:    1.000    1.000
 209:    1.000    1.000
 210:    1.000    1.000
 211:    1.000    1.000
 212:    1.000    1.000
 213:    1.000    1.000
 214:    1.000    1.000
 215:    1.000    1.000
 216:    1.000    1.000
 217:    1.000    1.000
 218:    1.000    1.000
 219:    1.000    1.000
 220:    1.000    1.000
 221:    1.000    1.000
 222:    1.000    1.000
 223:    1.000    1.000
 224:    1.000    1.000
 225:    1.000    1.000
 226:    1.000    1.000
 227:    1.000    1.000
 228:    1.000    1.000
 229:    1.000    1.000
 230:    1.000    1.000
 231:    1.000    1.000
 232:    1.000    1.000
 233:    1.000    1.000
 234:    1.000    1.000
 235:    1.000    1.000
 236:    1.000    1.000
 237:    1.000    1.000
 238:    1.000    1.000
 239:    1.000    1.000
 240:    1.000    1.000
 241:    1.000    1.000
 242:    1.000    1.000
 243:    1.000    1.000
 244:    1.000    1.000
 245:    1.000    1.000
 246:    1.000    1.000
 247:    1.000    1.000
 248:    1.000    1.000
 249:    1.000    1.000
 250:    1.000    1.000
 251:    1.000    1.000
 252:    1.000    1.000
 253:    1.000    1.000
 254:    1.000    1.000
 255:    1.000    1.000
 256:    1.000    1.000
 257:    1.000    1.000
 258:    1.000    1.000
 259:    1.000    1.000
 260:    1.000    1.000
 261:    1.000    1.000
 262:    1.000    1.000
 263:    1.000    1.000
 264:    1.000    1.000
 265:    1.000    1.000
 266:    1.000    1.000
 267:    1.000    1.000
 268:    1.000    1.000
 269:    1.000    1.000
 270:    1.000    1.000
 271:    1.000    1.000
 272:    1.000    1.000
 273:    1.000    1.000
 274:    1.000    1.000
 275:    1.000    1.000
 276:    1.000    1.000
 277:    1.000    1.000
 278:    1.000    1.000
 279:    1.000    1.000
 280:    1.000    1.000
 281:    1.000    1.000
 282:    1.000    1.000
 283:    1.000    1.000
 284:    1.000    1.000
 285:    1.000    1.000
 286:    1.000    1.000
 287:    1.000    1.000
 288:    1.000    1.000
 289:    1.000    1.000
 290:    1.000    1.000
 291:    1.000    1.000
 292:    1.000    1.000
 293:    1.000    1.000
 294:    1.000    1.000
 295:    1.000    1.000
 296:    1.000    1.000
 297:    1.000    1.000
 298:    1.000    1.000
 299:    1.000    1.000
 300:    1.000    1.000
 301:    1.000    1.000
 302:    1.000    1.000
 303:    1.000    1.000
 304:    1.000    1.000
 305:    1.000    1.000
 306:    1.000    1.000
 307:    1.000    1.000
 308:    1.000    1.000
 309:    1.000    1.000
 310:    1.000    1.000
 311:    1.000    1.000
 312:    1.000    1.000
 313:    1.000    1.000
 314:    1.000    1.000
 315:    1.000    1.000
 316:    1.000    1.000
 317:    1.000    1.000
 318:    1.000    1.000
 319:    1.000    1.000
 320:    1.000    1.000
 321:    1.000    1.000
 322:    1.000    1.000
 323:    1.000    1.000
 324:    1.000    1.000
 325:    1.000    1.000
 326:    1.000    1.000
 327:    1.000    1.000
 328:    0.000    0.000
 329:    0.000    0.000
 330:    0.000    0.000
 331:    0.000    0.000
 332:    0.000    0.000
 333:    0.000    0.000
 334:    0.000    0.000
 335:    0.000    0.000
 336:    0.000    0.000
 337:    0.000    0.000
 338:    0.000    0.000

----------------------------------------D-I-I-S--------------------------------------------
Iteration    Energy (Eh)           Delta-E    RMSDP     MaxDP     DIISErr   Damp  Time(sec)
-------------------------------------------------------------------------------------------
               ***  Starting incremental Fock matrix formation  ***
    1    -9711.7316035198509780     0.00e+00  3.64e-03  1.81e-01  7.29e-02  0.700  11.4
Warning: op=0 Small HOMO/LUMO gap (  -0.831) - skipping pre-diagonalization
         LevelShift set to 0.931 Eh
         Will do a full diagonalization
    2    -9711.1867625117647549     5.45e-01  2.32e-03  1.27e-01  5.80e-02  0.700   6.2
                               ***Turning on AO-DIIS***
    3    -9709.9233887450409384     1.26e+00  1.57e-03  8.88e-02  8.95e-02  0.700   5.6
    4    -9708.6089740874394920     1.31e+00  3.61e-03  2.07e-01  1.21e-01  0.000   5.4
    5    -9704.1592142284189322     4.45e+00  9.48e-05  3.03e-03  2.01e-01  0.700   5.9
    6    -9704.1645950464026100    -5.38e-03  2.53e-04  2.42e-02  2.02e-01  0.700   4.1
    7    -9704.1417840266349231     2.28e-02  4.13e-04  8.20e-03  2.10e-01  0.700   4.5
    8    -9704.2871327406846831    -1.45e-01  2.74e-03  2.10e-01  2.06e-01  0.700   4.8
    9    -9707.2214905053897382    -2.93e+00  5.47e-03  3.00e-01  2.67e-01  0.700   5.5
   10    -9706.3727946896742651     8.49e-01  3.65e-03  2.10e-01  1.12e-01  0.700   5.9
   11    -9697.9018462983203790     8.47e+00  2.54e-03  1.47e-01  3.07e-01  0.700   5.7
   12    -9688.3916249004669226     9.51e+00  1.83e-03  1.03e-01  3.98e-01  0.700   5.5
   13    -9680.1812752946480032     8.21e+00  1.42e-03  7.17e-02  5.25e-01  0.700   5.8
   14    -9673.9735575422146212     6.21e+00  1.36e-03  4.74e-02  6.27e-01  0.700   5.2
   15    -9670.3272870987657370     3.65e+00  4.06e-03  2.62e-01  6.98e-01  0.700   5.4
   16    -9688.0538412719597545    -1.77e+01  1.23e-02  1.50e+00  5.48e-01  0.700   5.5
   17    -9702.4811105430799216    -1.44e+01  7.57e-03  9.74e-01  1.89e-01  0.700   5.7
   18    -9705.7232743363874761    -3.24e+00  3.94e-03  4.17e-01  6.79e-02  0.700   5.6
   19    -9704.9787426981583849     7.45e-01  9.41e-03  2.97e-01  9.00e-02  0.000   5.5
   20    -9694.5337438625956565     1.04e+01  6.50e-03  8.96e-01  1.29e-01  0.000   6.1
               *** Restarting incremental Fock matrix formation ***
                             ****Resetting DIIS****
Warning: op=0 Small HOMO/LUMO gap (  -4.962) - skipping pre-diagonalization
         LevelShift set to 1.000 Eh
         Will do a full diagonalization
   21    -9695.1906500809109275    -6.57e-01  1.46e-02  1.01e+00  1.23e-01  0.700   7.5
   22    -9702.3612057527334400    -7.17e+00  1.01e-02  7.02e-01  7.76e-02  0.700   6.3
   23    -9686.1093377879242325     1.63e+01  2.37e-02  1.64e+00  1.65e-01  0.000   6.1
   24    -9583.5347130267491593     1.03e+02  5.47e-04  1.25e-02  5.19e-01  0.700   6.6
   25    -9584.4616408772835712    -9.27e-01  7.79e-04  2.08e-02  5.13e-01  0.700   5.1
   26    -9585.8734778351154091    -1.41e+00  1.13e-03  2.77e-02  4.95e-01  0.700   5.4
   27    -9587.9618490795019170    -2.09e+00  1.30e-02  8.85e-01  4.58e-01  0.700   5.5
   28    -9646.9690147712044563    -5.90e+01  2.81e-02  2.02e+00  2.71e-01  0.700   6.0
   29    -9686.8173825434114406    -3.98e+01  1.92e-02  1.36e+00  9.27e-02  0.700   6.6
   30    -9688.8815549244445720    -2.06e+00  4.42e-02  3.18e+00  1.09e-01  0.000   6.7
   31    -9628.7424656812818284     6.01e+01  4.84e-03  3.37e-01  7.70e-01  0.700   7.1
   32    -9632.0240592710706551    -3.28e+00  8.71e-03  5.74e-01  6.80e-01  0.700   6.2
   33    -9637.8931436026450683    -5.87e+00  1.03e-02  8.57e-01  5.25e-01  0.700   6.4
   34    -9644.8772656225828541    -6.98e+00  2.18e-02  1.56e+00  3.69e-01  0.700   6.6
   35    -9674.2706961472522380    -2.94e+01  6.77e-02  2.50e+00  2.29e-01  0.700   6.8
   36    -9688.4842912548901950    -1.42e+01  2.43e-02  1.09e+00  1.60e-01  0.700   7.0
   37    -9679.6233787008550280     8.86e+00  1.76e-02  7.75e-01  1.64e-01  0.700   6.9
   38    -9670.7045194858819741     8.92e+00  1.33e-02  5.48e-01  2.94e-01  0.700   6.9
   39    -9665.4307292882713227     5.27e+00  9.72e-03  3.37e-01  3.60e-01  0.700   6.8
   40    -9664.6644640876020276     7.66e-01  1.87e-02  1.00e+00  3.36e-01  0.700   6.8
               *** Restarting incremental Fock matrix formation ***
                             ****Resetting DIIS****
Warning: op=0 Small HOMO/LUMO gap (  -3.036) - skipping pre-diagonalization
         LevelShift set to 1.000 Eh
         Will do a full diagonalization
   41    -9686.5800695054804237    -2.19e+01  6.38e-02  3.83e+00  2.05e-01  0.700   8.1
   42    -9685.4250225328705710     1.16e+00  2.32e-02  8.76e-01  1.21e-01  0.700   7.2
   43    -9677.0996921232090244     8.33e+00  1.60e-02  8.51e-01  1.85e-01  0.700   7.1
   44    -9672.5488239107562549     4.55e+00  1.46e-02  8.61e-01  2.35e-01  0.700   6.9
   45    -9672.9295028665674181    -3.81e-01  1.31e-02  6.81e-01  2.61e-01  0.700   6.9
   46    -9675.9758114247142657    -3.05e+00  2.63e-02  1.51e+00  2.91e-01  0.700   6.8
   47    -9686.0685782444725191    -1.01e+01  1.53e-02  3.90e-01  3.11e-01  0.700   6.9
   48    -9687.4296403818716499    -1.36e+00  1.18e-02  3.37e-01  2.20e-01  0.700   6.9
   49    -9686.5657623860806780     8.64e-01  1.00e-02  3.38e-01  2.34e-01  0.700   6.9
   50    -9687.3356421516346018    -7.70e-01  9.17e-03  3.26e-01  2.94e-01  0.700   6.8

       ******************************************************************************
       ***                                                                        ***
       ***                               Auto-TRAH                                ***
       ***                               ---------                                ***
       *** the maximum gradient error decreased on average only by a factor   0.9 ***
       *** during the last  10 iterations                                         ***
       ***                                                                        ***
       ***               Leaving SCF to start the TRAH-SCF procedure              ***
       ***                                                                        ***
       ******************************************************************************

 --------------------------------------------------------------------------------------------
   Iter.        energy            ||Error||_2        Shift      TRadius  Mac/Mic        Rej.
 --------------------------------------------------------------------------------------------
    0      -9693.498363075681     4.858287e+00                     0.400 (TRAH MAcro)   No
WARNING: 22323 diagonal Hessian elements are negative!
WARNING : negative HOMO - LUMO gap : (op = alpha) -3.250876
WARNING : negative HOMO - LUMO gap : (op =  beta) -3.291645
WARNING : negative HOMO - LUMO gap : (op = alpha) -3.250876
WARNING : negative HOMO - LUMO gap : (op =  beta) -3.291645
    0     dE    -3.610468e+00     2.316596e-01    -1.0491e+01      0.400 (TRAH MIcro)
    0     dE    -3.614950e+00     1.444135e-02    -1.0543e+01      0.400 (TRAH MIcro)
    0     dE    -3.614968e+00     5.897045e-04    -1.0544e+01      0.400 (TRAH MIcro)
    1      -9697.096641012842     4.157407e+00                     0.480 (TRAH MAcro)   No
WARNING: 18278 diagonal Hessian elements are negative!
WARNING : negative HOMO - LUMO gap : (op = alpha) -2.768907
WARNING : negative HOMO - LUMO gap : (op =  beta) -2.804461
WARNING : negative HOMO - LUMO gap : (op = alpha) -2.768907
WARNING : negative HOMO - LUMO gap : (op =  beta) -2.804461
    1     dE    -3.472330e+00     2.722609e-01    -7.4167e+00      0.460 (TRAH MIcro)
    1     dE    -3.498790e+00     2.327033e-02    -7.4345e+00      0.463 (TRAH MIcro)
    1     dE    -3.499534e+00     1.411235e-03    -7.4346e+00      0.463 (TRAH MIcro)
    2      -9700.572248614937     3.369807e+00                     0.576 (TRAH MAcro)   No
WARNING: 13870 diagonal Hessian elements are negative!
WARNING : negative HOMO - LUMO gap : (op = alpha) -2.259965
WARNING : negative HOMO - LUMO gap : (op =  beta) -2.289367
WARNING : negative HOMO - LUMO gap : (op = alpha) -2.259965
WARNING : negative HOMO - LUMO gap : (op =  beta) -2.289367
    2     dE    -3.345790e+00     3.553119e-01    -4.2975e+00      0.576 (TRAH MIcro)
    2     dE    -3.367084e+00     4.532286e-02    -4.4211e+00      0.576 (TRAH MIcro)
    2     dE    -3.367398e+00     4.255880e-03    -4.4252e+00      0.576 (TRAH MIcro)
    3      -9703.902485303533     2.459943e+00                     0.691 (TRAH MAcro)   No
WARNING: 9153 diagonal Hessian elements are negative!
WARNING : negative HOMO - LUMO gap : (op = alpha) -1.815292
WARNING : negative HOMO - LUMO gap : (op =  beta) -1.826293
WARNING : negative HOMO - LUMO gap : (op = alpha) -1.815292
WARNING : negative HOMO - LUMO gap : (op =  beta) -1.826293
    3     dE    -2.731701e+00     4.253907e-01    -2.2393e+00      0.691 (TRAH MIcro)
    3     dE    -2.766409e+00     8.407295e-02    -2.4716e+00      0.688 (TRAH MIcro)
    3     dE    -2.770915e+00     1.338458e-02    -2.4730e+00      0.689 (TRAH MIcro)
    3     dE    -2.769589e+00     1.914972e-03    -2.4730e+00      0.688 (TRAH MIcro)
    4      -9706.615520332267     1.591770e+00                     0.829 (TRAH MAcro)   No
WARNING: 4698 diagonal Hessian elements are negative!
WARNING : negative HOMO - LUMO gap : (op = alpha) -1.417626
WARNING : negative HOMO - LUMO gap : (op =  beta) -1.442540
WARNING : negative HOMO - LUMO gap : (op = alpha) -1.417626
WARNING : negative HOMO - LUMO gap : (op =  beta) -1.442540
    4     dE    -2.047153e+00     4.707756e-01    -1.2319e+00      0.829 (TRAH MIcro)
    4     dE    -2.094950e+00     2.910121e-01    -1.5054e+00      0.829 (TRAH MIcro)
    4     dE    -2.134951e+00     1.055315e-01    -1.6365e+00      0.829 (TRAH MIcro)
    4     dE    -2.128203e+00     2.030913e-02    -1.6039e+00      0.825 (TRAH MIcro)
    4     dE    -2.133660e+00     3.457415e-03    -1.6040e+00      0.827 (TRAH MIcro)
    5      -9708.599148570020     1.070548e+00                     0.995 (TRAH MAcro)   No
WARNING: 1552 diagonal Hessian elements are negative!
WARNING : negative HOMO - LUMO gap : (op = alpha) -0.776991
WARNING : negative HOMO - LUMO gap : (op =  beta) -1.013063
WARNING : negative HOMO - LUMO gap : (op = alpha) -0.776991
WARNING : negative HOMO - LUMO gap : (op =  beta) -1.013063
    5     dE    -1.852422e+00     4.988960e-01    -9.3771e-01      0.988 (TRAH MIcro)
    5     dE    -1.956711e+00     1.522976e-01    -1.1430e+00      0.995 (TRAH MIcro)
    5     dE    -1.973798e+00     4.679551e-02    -1.1222e+00      0.995 (TRAH MIcro)
    5     dE    -1.974787e+00     1.328279e-02    -1.1276e+00      0.995 (TRAH MIcro)
    5     dE    -1.974880e+00     3.329816e-03    -1.1298e+00      0.995 (TRAH MIcro)
    6      -9710.236505357338     6.889814e-01                     1.194 (TRAH MAcro)   No
WARNING: 238 diagonal Hessian elements are negative!
WARNING : negative HOMO - LUMO gap : (op = alpha) -0.314565
WARNING : negative HOMO - LUMO gap : (op =  beta) -0.472269
WARNING : negative HOMO - LUMO gap : (op = alpha) -0.314565
WARNING : negative HOMO - LUMO gap : (op =  beta) -0.472269
    6     dE    -9.073576e-01     3.940856e-01    -5.1573e-01      0.871 (TRAH MIcro)
    6     dE    -1.243347e+00     9.765146e-02    -5.6419e-01      1.097 (TRAH MIcro)
    6     dE    -1.289276e+00     3.062978e-02    -5.6627e-01      1.130 (TRAH MIcro)
    6     dE    -1.294167e+00     1.129099e-02    -5.6648e-01      1.133 (TRAH MIcro)
    6     dE    -1.291456e+00     4.619427e-03    -5.6652e-01      1.131 (TRAH MIcro)
    7      -9711.260939088927     3.703373e-01                     1.433 (TRAH MAcro)   No
WARNING: 19 diagonal Hessian elements are negative!
WARNING : negative HOMO - LUMO gap : (op = alpha) -0.107744
WARNING : negative HOMO - LUMO gap : (op =  beta) -0.143643
WARNING : negative HOMO - LUMO gap : (op = alpha) -0.107744
WARNING : negative HOMO - LUMO gap : (op =  beta) -0.143643
    7     dE    -3.907895e-01     1.937588e-01    -2.4933e-01      0.753 (TRAH MIcro)
    7     dE    -4.325240e-01     7.078295e-02    -2.6505e-01      0.795 (TRAH MIcro)
    7     dE    -4.466387e-01     2.998206e-02    -2.6729e-01      0.819 (TRAH MIcro)
    7     dE    -4.527104e-01     1.646389e-02    -2.6781e-01      0.831 (TRAH MIcro)
    7     dE    -4.552664e-01     8.958208e-03    -2.6794e-01      0.836 (TRAH MIcro)
    8      -9711.685555187254     1.780927e-01                     1.720 (TRAH MAcro)   No
WARNING: 13 diagonal Hessian elements are negative!
WARNING : negative HOMO - LUMO gap : (op = alpha) -0.038433
WARNING : negative HOMO - LUMO gap : (op =  beta) -0.096971
WARNING : negative HOMO - LUMO gap : (op = alpha) -0.038433
WARNING : negative HOMO - LUMO gap : (op =  beta) -0.096971
    8     dE    -1.472924e-01     1.199915e-01    -1.0303e-01      0.655 (TRAH MIcro)
    8     dE    -5.233373e-01     1.724888e-01    -1.3409e-01      1.720 (TRAH MIcro)
    8     dE    -5.426803e-01     3.831689e-02    -1.4528e-01      1.720 (TRAH MIcro)
    8     dE    -5.440511e-01     1.824472e-02    -1.4573e-01      1.720 (TRAH MIcro)
    8     dE    -5.444553e-01     1.020285e-02    -1.4561e-01      1.720 (TRAH MIcro)
    8     dE    -5.445425e-01     4.261839e-03    -1.4557e-01      1.720 (TRAH MIcro)
    9      -9711.859822818575     2.300533e-01                     1.720 (TRAH MAcro)   No
WARNING: 3 diagonal Hessian elements are negative!
WARNING : negative HOMO - LUMO gap : (op =  beta) -0.046074
WARNING : negative HOMO - LUMO gap : (op =  beta) -0.046074
    9     dE    -5.055735e-02     8.678475e-02    -4.7306e-02      0.262 (TRAH MIcro)
    9     dE    -7.130284e-02     6.032104e-02    -1.0054e-01      0.507 (TRAH MIcro)
    9     dE    -6.220156e-02     3.469675e-02    -1.1155e-01      0.325 (TRAH MIcro)
    9     dE    -6.464696e-02     1.164513e-02    -1.1327e-01      0.345 (TRAH MIcro)
    9     dE    -6.529367e-02     6.858910e-03    -1.1360e-01      0.351 (TRAH MIcro)
   10      -9711.922964625566     3.400773e-02                     2.064 (TRAH MAcro)   No
   10     dE    -5.844977e-03     3.178773e-02    -5.6390e-03      0.191 (TRAH MIcro)
   10     dE    -7.074475e-03     1.661695e-02    -6.6840e-03      0.242 (TRAH MIcro)
   10     dE    -7.661214e-03     1.182479e-02    -7.1308e-03      0.273 (TRAH MIcro)
   10     dE    -7.853877e-03     6.045552e-03    -7.2703e-03      0.283 (TRAH MIcro)
   10     dE    -7.913903e-03     4.090746e-03    -7.3146e-03      0.286 (TRAH MIcro)
   10     dE    -7.956237e-03     2.730529e-03    -7.3402e-03      0.290 (TRAH MIcro)
   11      -9711.930340893874     1.309023e-02                     2.477 (TRAH MAcro)   No
   11     dE    -1.137784e-04     4.039511e-03    -1.1377e-04      0.011 (TRAH MIcro)
   11     dE    -1.395655e-04     3.177366e-03    -1.3952e-04      0.017 (TRAH MIcro)
   11     dE    -1.511589e-04     2.141263e-03    -1.5108e-04      0.023 (TRAH MIcro)
   11     dE    -1.579341e-04     1.696581e-03    -1.5781e-04      0.028 (TRAH MIcro)
   11     dE    -1.628686e-04     1.532006e-03    -1.6270e-04      0.032 (TRAH MIcro)
   11     dE    -1.662587e-04     1.133313e-03    -1.6604e-04      0.036 (TRAH MIcro)
   12      -9711.930507665515     1.118871e-03                     2.972 (TRAH MAcro)   No
   12     dE    -1.471260e-06     8.392777e-04    -1.4713e-06      0.002 (TRAH MIcro)
   12     dE    -3.275090e-06     1.164757e-03    -3.2750e-06      0.006 (TRAH MIcro)
   12     dE    -6.963097e-06     1.787624e-03    -6.9611e-06      0.017 (TRAH MIcro)
   12     dE    -1.615594e-05     2.886362e-03    -1.6122e-05      0.046 (TRAH MIcro)
   12     dE    -3.307592e-05     3.105441e-03    -3.2742e-05      0.101 (TRAH MIcro)
   12     dE    -5.982853e-05     4.547351e-03    -5.7840e-05      0.185 (TRAH MIcro)
   12     dE    -1.040626e-04     3.846711e-03    -9.4870e-05      0.311 (TRAH MIcro)
   12     dE    -1.393028e-04     4.207040e-03    -1.2026e-04      0.398 (TRAH MIcro)
   12     dE    -1.769311e-04     3.678230e-03    -1.4389e-04      0.479 (TRAH MIcro)
   12     dE    -1.974857e-04     2.330656e-03    -1.5554e-04      0.519 (TRAH MIcro)
   12     dE    -2.064464e-04     1.281544e-03    -1.6037e-04      0.536 (TRAH MIcro)
   12     dE    -2.092485e-04     9.065291e-04    -1.6185e-04      0.541 (TRAH MIcro)
   12     dE    -2.114022e-04     7.844190e-04    -1.6299e-04      0.545 (TRAH MIcro)
   12     dE    -2.123683e-04     5.294522e-04    -1.6349e-04      0.547 (TRAH MIcro)
   12     dE    -2.127489e-04     2.940457e-04    -1.6369e-04      0.547 (TRAH MIcro)
   12     dE    -2.128851e-04     2.042244e-04    -1.6376e-04      0.548 (TRAH MIcro)
   12     dE    -2.129750e-04     1.775956e-04    -1.6381e-04      0.548 (TRAH MIcro)
   12     dE    -2.130313e-04     1.190046e-04    -1.6384e-04      0.548 (TRAH MIcro)
   12     dE    -2.130527e-04     6.613920e-05    -1.6385e-04      0.548 (TRAH MIcro)
 ---------------------------------
          TRAH Step control 
 ---------------------------------
  predicted energy change =    -2.130526801032e-04
  actual energy  change   =     2.517858065403e-04
  energy change ratio     = -1.181801
  old trust radius        = 2.972033
  new trust radius        = 1.991262
  reject step?            = YES
   13      -9711.930255879708     1.118871e-03                     1.991 (TRAH MAcro)  Yes
   14      -9711.930255879708     2.440740e-02                     1.991 (TRAH MAcro)   No
   14     dE    -4.104627e-04     2.756358e-03    -4.1033e-04      0.018 (TRAH MIcro)
   14     dE    -4.142281e-04     1.247619e-03    -4.1409e-04      0.018 (TRAH MIcro)
   15      -9711.930670090384     1.250585e-03                     2.390 (TRAH MAcro)   No
   15     dE    -7.457969e-07     5.545018e-04    -7.4580e-07      0.001 (TRAH MIcro)
   15     dE    -9.714252e-07     1.519635e-04    -9.7142e-07      0.001 (TRAH MIcro)
   15     dE    -9.874960e-07     7.438096e-05    -9.8750e-07      0.001 (TRAH MIcro)
   16      -9711.930671076390     7.440403e-05                           (NR   MAcro)
   16     dE    -8.195673e-09     7.904323e-05                           (NR   MIcro)
   16     dE    -3.695281e-08     2.236315e-04                           (NR   MIcro)
   16     dE    -1.549195e-07     4.248549e-04                           (NR   MIcro)
   16     dE    -5.298400e-07     3.372403e-04                           (NR   MIcro)
   16     dE    -6.866260e-07     3.117783e-04                           (NR   MIcro)
   16     dE    -8.529391e-07     3.036759e-04                           (NR   MIcro)
   16     dE    -1.008842e-06     3.361803e-04                           (NR   MIcro)
   16     dE    -1.166248e-06     2.646114e-04                           (NR   MIcro)
   16     dE    -1.219529e-06     1.337073e-04                           (NR   MIcro)
   16     dE    -1.241509e-06     1.101441e-04                           (NR   MIcro)
   16     dE    -1.255353e-06     9.138126e-05                           (NR   MIcro)
   16     dE    -1.260607e-06     4.562678e-05                           (NR   MIcro)
   16     dE    -1.263307e-06     4.393101e-05                           (NR   MIcro)
   16     dE    -1.264874e-06     3.659945e-05                           (NR   MIcro)
   16     dE    -1.265620e-06     1.607664e-05                           (NR   MIcro)
   16     dE    -1.266015e-06     1.969107e-05                           (NR   MIcro)
   16     dE    -1.266697e-06     2.550160e-05                           (NR   MIcro)
   16     dE    -1.267757e-06     3.097520e-05                           (NR   MIcro)
   16     dE    -1.269406e-06     4.643379e-05                           (NR   MIcro)
   16     dE    -1.272913e-06     5.275924e-05                           (NR   MIcro)
   16     dE    -1.280622e-06     1.113331e-04                           (NR   MIcro)
   16     dE    -1.295915e-06     1.093484e-04                           (NR   MIcro)
   16     dE    -1.307330e-06     7.212950e-05                           (NR   MIcro)
   16     dE    -1.312214e-06     5.337495e-05                           (NR   MIcro)
   17      -9711.930672355356     1.942592e-04                     2.867 (TRAH MAcro)   No
   17     dE    -2.405939e-08     5.481820e-05    -2.4059e-08      0.000 (TRAH MIcro)
   17     dE    -2.571883e-08     1.820337e-05    -2.5719e-08      0.000 (TRAH MIcro)
   18      -9711.930672380709     1.819651e-05                           (NR   MAcro)
   18     dE    -2.955519e-10     1.260263e-05                           (NR   MIcro)
   18     dE    -5.505346e-10     1.267369e-05                           (NR   MIcro)
   18     dE    -6.886923e-10     6.443097e-06                           (NR   MIcro)
   18     dE    -7.228466e-10     3.034898e-06                           (NR   MIcro)
   18     dE    -7.332604e-10     2.684088e-06                           (NR   MIcro)
   18     dE    -7.469801e-10     2.953111e-06                           (NR   MIcro)
   18     dE    -7.606321e-10     3.465602e-06                           (NR   MIcro)
   18     dE    -7.883361e-10     4.729994e-06                           (NR   MIcro)
   18     dE    -8.272093e-10     5.893945e-06                           (NR   MIcro)
   18     dE    -9.123056e-10     8.482315e-06                           (NR   MIcro)
   18     dE    -1.041308e-09     1.088027e-05                           (NR   MIcro)
   18     dE    -1.251345e-09     1.359274e-05                           (NR   MIcro)
   18     dE    -1.560439e-09     1.299860e-05                           (NR   MIcro)
   18     dE    -1.686669e-09     6.712111e-06                           (NR   MIcro)
   18     dE    -1.723625e-09     3.736648e-06                           (NR   MIcro)
   18     dE    -1.748897e-09     3.800653e-06                           (NR   MIcro)
   18     dE    -1.759865e-09     2.175075e-06                           (NR   MIcro)
   18     dE    -1.764476e-09     1.458711e-06                           (NR   MIcro)
   18     dE    -1.767406e-09     1.396893e-06                           (NR   MIcro)
   18     dE    -1.769278e-09     9.999547e-07                           (NR   MIcro)
   19      -9711.930672384660     1.032221e-06                           (NR   MAcro)

               *****************************************************
               *                     SUCCESS                       *
               *           SCF CONVERGED AFTER 195 CYCLES          *
               *****************************************************

Recomputing exchange energy using gridx3       ... done (   19.354 sec)
Old exchange energy                            :   -196.941341114 Eh
New exchange energy                            :   -196.941336118 Eh
Exchange energy change after final integration :      0.000004997 Eh
Total energy after final integration           :  -9711.930667388 Eh
Warning: op=1 Small HOMO/LUMO gap (   0.053) - skipping pre-diagonalization
         Will do a full diagonalization
             **** ENERGY FILE WAS UPDATED (TPA-OMe.en.tmp) ****

----------------
TOTAL SCF ENERGY
----------------

Total Energy       :      -9711.93066738799826 Eh         -264275.06894 eV

Components:
Nuclear Repulsion  :      15155.48915882823530 Eh          412401.82612 eV
Electronic Energy  :     -24867.41983121289377 Eh         -676676.89520 eV
One Electron Energy:     -43585.61592738996114 Eh        -1186024.90573 eV
Two Electron Energy:      18718.19609617706737 Eh          509348.01053 eV

Virial components:
Potential Energy   :     -19394.64643567609892 Eh         -527755.16007 eV
Kinetic Energy     :       9682.71576828810066 Eh          263480.09112 eV
Virial Ratio       :          2.00301722159351

DFT components:
N(Alpha)           :      328.000066949469 electrons
N(Beta)            :      328.000099314850 electrons
N(Total)           :      656.000166264319 electrons
E(XC)              :     -591.440253051590 Eh       

---------------
SCF CONVERGENCE
---------------

  Last Energy change         ...   -3.9508e-09  Tolerance :   1.0000e-08
  Last MAX-Density change    ...    2.7427e-01  Tolerance :   1.0000e-07
  Last RMS-Density change    ...    8.4500e-03  Tolerance :   5.0000e-09
  Last DIIS Error            ...    2.4542e-01  Tolerance :   5.0000e-07


----------------------
UHF SPIN CONTAMINATION
----------------------

Warning: in a DFT calculation there is little theoretical justification to 
         calculate <S**2> as in Hartree-Fock theory. We will do it anyways
         but you should keep in mind that the values have only limited relevance

Expectation value of <S**2>     :     2.084669
Ideal value S*(S+1) for S=0.0   :     0.000000
Deviation                       :     2.084669


                    ********************************
                    * MULLIKEN POPULATION ANALYSIS *
                    ********************************

--------------------------------------------
MULLIKEN ATOMIC CHARGES AND SPIN POPULATIONS
--------------------------------------------
   0 C :   -0.117450   -0.030399
   1 C :    0.073622    0.034337
   2 C :   -0.130894   -0.030695
   3 C :   -0.126265    0.018067
   4 C :    0.243945   -0.029198
   5 C :   -0.120440    0.018975
   6 N :   -0.561005   -0.008188
   7 C :    0.244698   -0.029360
   8 C :    0.173870    0.002419
   9 C :   -0.090540   -0.002825
  10 C :   -0.133454    0.001912
  11 C :    0.331629   -0.002584
  12 C :   -0.161992    0.001845
  13 C :   -0.097464   -0.003257
  14 C :   -0.127287    0.018267
  15 C :   -0.130611   -0.031206
  16 C :    0.074054    0.034930
  17 C :   -0.116541   -0.030359
  18 C :   -0.120929    0.019167
  19 C :    0.190586   -0.110338
  20 N :   -0.371448    0.056661
  21 C :    0.027478   -0.117480
  22 C :    0.120967    0.172685
  23 C :   -0.106743   -0.121481
  24 C :   -0.082596    0.078201
  25 C :   -0.105056   -0.820678
  26 C :    0.132190    0.154487
  27 C :    0.136737    0.155708
  28 C :   -0.125025   -0.114887
  29 C :   -0.045406    0.069548
  30 C :   -0.094648   -0.099737
  31 C :   -0.044734    0.069478
  32 C :   -0.123913   -0.114920
  33 C :   -0.124890   -0.114072
  34 C :   -0.045771    0.068879
  35 C :   -0.094991   -0.098763
  36 C :   -0.046032    0.068952
  37 C :   -0.126108   -0.114189
  38 Cl:    0.021335   -0.002941
  39 Cl:    0.014846   -0.002281
  40 Cl:    0.017245   -0.002851
  41 Cl:    0.013825   -0.004665
  42 Cl:    0.018669   -0.002266
  43 Cl:    0.017235   -0.002764
  44 Cl:    0.006571   -0.005458
  45 Cl:    0.005709   -0.005328
  46 C :    0.190353   -0.112270
  47 N :   -0.372223    0.057832
  48 C :    0.028262   -0.118317
  49 C :    0.119146    0.172356
  50 C :   -0.106404   -0.123255
  51 C :   -0.082230    0.079416
  52 C :   -0.083761   -0.809058
  53 C :    0.137579    0.158315
  54 C :    0.048661    0.075711
  55 C :    0.029086    0.917801
  56 C :   -0.107028   -0.020647
  57 C :   -0.082434   -0.027195
  58 C :   -0.048095    0.008460
  59 C :   -0.106866   -0.050243
  60 C :   -0.136903   -0.119592
  61 C :   -0.045875    0.072847
  62 C :   -0.095552   -0.103827
  63 C :   -0.047518    0.072554
  64 C :   -0.129807   -0.119052
  65 Cl:    0.020077   -0.002952
  66 Cl:    0.010873    0.016290
  67 Cl:    0.000490    0.999885
  68 Cl:    0.008863   -0.004616
  69 Cl:    0.018706   -0.002427
  70 Cl:    0.019695   -0.003302
  71 Cl:    0.003335    0.008990
  72 Cl:    0.006214   -0.005499
  73 O :   -0.487189   -0.000368
  74 C :   -0.079593    0.000040
  75 H :    0.132702    0.001128
  76 H :    0.092040    0.001311
  77 H :    0.108903   -0.000629
  78 H :    0.112857   -0.000663
  79 H :    0.109563    0.000132
  80 H :    0.107678   -0.000088
  81 H :    0.098488   -0.000083
  82 H :    0.108447    0.000152
  83 H :    0.108427   -0.000636
  84 H :    0.092095    0.001334
  85 H :    0.131952    0.000878
  86 H :    0.113254   -0.000676
  87 H :    0.125727   -0.003691
  88 H :    0.145466   -0.003108
  89 H :    0.145621   -0.003165
  90 H :    0.145122   -0.003138
  91 H :    0.145526   -0.003102
  92 H :    0.125559   -0.003745
  93 H :    0.136484    0.016268
  94 H :    0.145969   -0.001100
  95 H :    0.145725   -0.003288
  96 H :    0.145952   -0.003244
  97 H :    0.129596    0.000001
  98 H :    0.111943   -0.000038
  99 H :    0.112061   -0.000036
Sum of atomic charges         :   -0.0000000
Sum of atomic spin populations:    0.0000000

-----------------------------------------------------
MULLIKEN REDUCED ORBITAL CHARGES AND SPIN POPULATIONS
-----------------------------------------------------
CHARGE
  0 C s       :     3.186422  s :     3.186422
      pz      :     0.972981  p :     2.895753
      px      :     0.936349
      py      :     0.986423
      dz2     :     0.003997  d :     0.035274
      dxz     :     0.007590
      dyz     :     0.005435
      dx2y2   :     0.009533
      dxy     :     0.008719

  1 C s       :     3.134043  s :     3.134043
      pz      :     0.967496  p :     2.753851
      px      :     0.883224
      py      :     0.903131
      dz2     :     0.006256  d :     0.038484
      dxz     :     0.006554
      dyz     :     0.005892
      dx2y2   :     0.009500
      dxy     :     0.010282

  2 C s       :     3.170972  s :     3.170972
      pz      :     0.980081  p :     2.924208
      px      :     0.976044
      py      :     0.968083
      dz2     :     0.003772  d :     0.035713
      dxz     :     0.007568
      dyz     :     0.005880
      dx2y2   :     0.009443
      dxy     :     0.009050

  3 C s       :     3.160357  s :     3.160357
      pz      :     0.978338  p :     2.932235
      px      :     0.952192
      py      :     1.001706
      dz2     :     0.003800  d :     0.033673
      dxz     :     0.007494
      dyz     :     0.005159
      dx2y2   :     0.009091
      dxy     :     0.008129

  4 C s       :     3.083958  s :     3.083958
      pz      :     0.907143  p :     2.614381
      px      :     0.794453
      py      :     0.912784
      dz2     :     0.008080  d :     0.057717
      dxz     :     0.014624
      dyz     :     0.008424
      dx2y2   :     0.012136
      dxy     :     0.014452

  5 C s       :     3.162333  s :     3.162333
      pz      :     0.971077  p :     2.924341
      px      :     0.986071
      py      :     0.967193
      dz2     :     0.003648  d :     0.033765
      dxz     :     0.007185
      dyz     :     0.005713
      dx2y2   :     0.009140
      dxy     :     0.008079

  6 N s       :     3.578509  s :     3.578509
      pz      :     1.706196  p :     3.943806
      px      :     1.118287
      py      :     1.119323
      dz2     :     0.003285  d :     0.038689
      dxz     :     0.005377
      dyz     :     0.004999
      dx2y2   :     0.012316
      dxy     :     0.012713

  7 C s       :     3.083212  s :     3.083212
      pz      :     0.909802  p :     2.614409
      px      :     0.793015
      py      :     0.911591
      dz2     :     0.007845  d :     0.057681
      dxz     :     0.014437
      dyz     :     0.008377
      dx2y2   :     0.012382
      dxy     :     0.014641

  8 C s       :     3.090296  s :     3.090296
      pz      :     0.919661  p :     2.680209
      px      :     1.016677
      py      :     0.743871
      dz2     :     0.009908  d :     0.055626
      dxz     :     0.005437
      dyz     :     0.018085
      dx2y2   :     0.013524
      dxy     :     0.008672

  9 C s       :     3.166834  s :     3.166834
      pz      :     0.954499  p :     2.888721
      px      :     0.989545
      py      :     0.944678
      dz2     :     0.005231  d :     0.034985
      dxz     :     0.004685
      dyz     :     0.010049
      dx2y2   :     0.006357
      dxy     :     0.008661

 10 C s       :     3.169995  s :     3.169995
      pz      :     0.985540  p :     2.930360
      px      :     0.996234
      py      :     0.948586
      dz2     :     0.004674  d :     0.033100
      dxz     :     0.004405
      dyz     :     0.009592
      dx2y2   :     0.006003
      dxy     :     0.008425

 11 C s       :     3.063852  s :     3.063852
      pz      :     0.932098  p :     2.533344
      px      :     0.935490
      py      :     0.665755
      dz2     :     0.011549  d :     0.071175
      dxz     :     0.005522
      dyz     :     0.018585
      dx2y2   :     0.017696
      dxy     :     0.017823

 12 C s       :     3.146840  s :     3.146840
      pz      :     0.992027  p :     2.981938
      px      :     1.014814
      py      :     0.975097
      dz2     :     0.004872  d :     0.033215
      dxz     :     0.004642
      dyz     :     0.009328
      dx2y2   :     0.006110
      dxy     :     0.008261

 13 C s       :     3.167885  s :     3.167885
      pz      :     0.959031  p :     2.894611
      px      :     0.993782
      py      :     0.941799
      dz2     :     0.005237  d :     0.034968
      dxz     :     0.004690
      dyz     :     0.009986
      dx2y2   :     0.006476
      dxy     :     0.008578

 14 C s       :     3.159965  s :     3.159965
      pz      :     0.980380  p :     2.933659
      px      :     0.952540
      py      :     1.000739
      dz2     :     0.003734  d :     0.033663
      dxz     :     0.007361
      dyz     :     0.004980
      dx2y2   :     0.009291
      dxy     :     0.008297

 15 C s       :     3.170933  s :     3.170933
      pz      :     0.980919  p :     2.923967
      px      :     0.975826
      py      :     0.967222
      dz2     :     0.003593  d :     0.035711
      dxz     :     0.007293
      dyz     :     0.005936
      dx2y2   :     0.009529
      dxy     :     0.009360

 16 C s       :     3.134034  s :     3.134034
      pz      :     0.972549  p :     2.753410
      px      :     0.883240
      py      :     0.897621
      dz2     :     0.006025  d :     0.038502
      dxz     :     0.006383
      dyz     :     0.005912
      dx2y2   :     0.009720
      dxy     :     0.010461

 17 C s       :     3.186560  s :     3.186560
      pz      :     0.969770  p :     2.894713
      px      :     0.935951
      py      :     0.988992
      dz2     :     0.003921  d :     0.035269
      dxz     :     0.007493
      dyz     :     0.005271
      dx2y2   :     0.009726
      dxy     :     0.008857

 18 C s       :     3.162543  s :     3.162543
      pz      :     0.973947  p :     2.924617
      px      :     0.987074
      py      :     0.963596
      dz2     :     0.003504  d :     0.033770
      dxz     :     0.006967
      dyz     :     0.005698
      dx2y2   :     0.009282
      dxy     :     0.008319

 19 C s       :     3.076912  s :     3.076912
      pz      :     0.870817  p :     2.671921
      px      :     0.968004
      py      :     0.833101
      dz2     :     0.009146  d :     0.060581
      dxz     :     0.010623
      dyz     :     0.010549
      dx2y2   :     0.014158
      dxy     :     0.016105

 20 N s       :     3.652568  s :     3.652568
      pz      :     1.263230  p :     3.680720
      px      :     1.323364
      py      :     1.094126
      dz2     :     0.006420  d :     0.038160
      dxz     :     0.006152
      dyz     :     0.007525
      dx2y2   :     0.009924
      dxy     :     0.008139

 21 C s       :     3.128011  s :     3.128011
      pz      :     0.920508  p :     2.774184
      px      :     0.981403
      py      :     0.872272
      dz2     :     0.009234  d :     0.070327
      dxz     :     0.013753
      dyz     :     0.011726
      dx2y2   :     0.020147
      dxy     :     0.015467

 22 C s       :     3.128337  s :     3.128337
      pz      :     0.958434  p :     2.711286
      px      :     0.862828
      py      :     0.890024
      dz2     :     0.005265  d :     0.039410
      dxz     :     0.008765
      dyz     :     0.006747
      dx2y2   :     0.010048
      dxy     :     0.008585

 23 C s       :     3.192955  s :     3.192955
      pz      :     0.935089  p :     2.863638
      px      :     0.925525
      py      :     1.003024
      dz2     :     0.007787  d :     0.050150
      dxz     :     0.010894
      dyz     :     0.007830
      dx2y2   :     0.012147
      dxy     :     0.011491

 24 C s       :     3.136502  s :     3.136502
      pz      :     1.009867  p :     2.913603
      px      :     0.913668
      py      :     0.990068
      dz2     :     0.003801  d :     0.032491
      dxz     :     0.006474
      dyz     :     0.005537
      dx2y2   :     0.008402
      dxy     :     0.008278

 25 C s       :     3.159283  s :     3.159283
      pz      :     1.000928  p :     2.906423
      px      :     0.953402
      py      :     0.952093
      dz2     :     0.003578  d :     0.039350
      dxz     :     0.004850
      dyz     :     0.004329
      dx2y2   :     0.012934
      dxy     :     0.013660

 26 C s       :     3.127780  s :     3.127780
      pz      :     0.900809  p :     2.699965
      px      :     0.872957
      py      :     0.926198
      dz2     :     0.007169  d :     0.040065
      dxz     :     0.010892
      dyz     :     0.006332
      dx2y2   :     0.008015
      dxy     :     0.007657

 27 C s       :     3.125965  s :     3.125965
      pz      :     0.889234  p :     2.697243
      px      :     0.938205
      py      :     0.869805
      dz2     :     0.007277  d :     0.040055
      dxz     :     0.005235
      dyz     :     0.012619
      dx2y2   :     0.007568
      dxy     :     0.007356

 28 C s       :     3.188866  s :     3.188866
      pz      :     0.893829  p :     2.887115
      px      :     0.984713
      py      :     1.008573
      dz2     :     0.010791  d :     0.049044
      dxz     :     0.007561
      dyz     :     0.012874
      dx2y2   :     0.008266
      dxy     :     0.009552

 29 C s       :     3.141801  s :     3.141801
      pz      :     0.967836  p :     2.870056
      px      :     0.982420
      py      :     0.919800
      dz2     :     0.006450  d :     0.033549
      dxz     :     0.004866
      dyz     :     0.008821
      dx2y2   :     0.006542
      dxy     :     0.006869

 30 C s       :     3.181989  s :     3.181989
      pz      :     1.018820  p :     2.862362
      px      :     1.022514
      py      :     0.821028
      dz2     :     0.010499  d :     0.050298
      dxz     :     0.005835
      dyz     :     0.012628
      dx2y2   :     0.011414
      dxy     :     0.009920

 31 C s       :     3.141471  s :     3.141471
      pz      :     0.990904  p :     2.869711
      px      :     0.990517
      py      :     0.888290
      dz2     :     0.005956  d :     0.033552
      dxz     :     0.004660
      dyz     :     0.009055
      dx2y2   :     0.006442
      dxy     :     0.007439

 32 C s       :     3.188723  s :     3.188723
      pz      :     0.924669  p :     2.886191
      px      :     0.993931
      py      :     0.967591
      dz2     :     0.010272  d :     0.048999
      dxz     :     0.007047
      dyz     :     0.013504
      dx2y2   :     0.008371
      dxy     :     0.009805

 33 C s       :     3.189301  s :     3.189301
      pz      :     0.939750  p :     2.886572
      px      :     0.929424
      py      :     1.017399
      dz2     :     0.009753  d :     0.049017
      dxz     :     0.013009
      dyz     :     0.007040
      dx2y2   :     0.009737
      dxy     :     0.009477

 34 C s       :     3.141824  s :     3.141824
      pz      :     0.994775  p :     2.870399
      px      :     0.878704
      py      :     0.996920
      dz2     :     0.005466  d :     0.033547
      dxz     :     0.008392
      dyz     :     0.005217
      dx2y2   :     0.006724
      dxy     :     0.007748

 35 C s       :     3.181981  s :     3.181981
      pz      :     1.017395  p :     2.862728
      px      :     0.858256
      py      :     0.987077
      dz2     :     0.010120  d :     0.050282
      dxz     :     0.011515
      dyz     :     0.006465
      dx2y2   :     0.010810
      dxy     :     0.011374

 36 C s       :     3.142017  s :     3.142017
      pz      :     0.966254  p :     2.870467
      px      :     0.956411
      py      :     0.947802
      dz2     :     0.006191  d :     0.033548
      dxz     :     0.008209
      dyz     :     0.005214
      dx2y2   :     0.007612
      dxy     :     0.006323

 37 C s       :     3.189281  s :     3.189281
      pz      :     0.899447  p :     2.887776
      px      :     1.026526
      py      :     0.961803
      dz2     :     0.010288  d :     0.049051
      dxz     :     0.011535
      dyz     :     0.008523
      dx2y2   :     0.009314
      dxy     :     0.009392

 38 Cls       :     5.926163  s :     5.926163
      pz      :     3.650820  p :    11.022347
      px      :     3.513641
      py      :     3.857886
      dz2     :     0.003941  d :     0.030155
      dxz     :     0.012356
      dyz     :     0.003174
      dx2y2   :     0.004877
      dxy     :     0.005809

 39 Cls       :     5.926642  s :     5.926642
      pz      :     3.518724  p :    11.028280
      px      :     3.793101
      py      :     3.716455
      dz2     :     0.005494  d :     0.030232
      dxz     :     0.006969
      dyz     :     0.010429
      dx2y2   :     0.002339
      dxy     :     0.005001

 40 Cls       :     5.926455  s :     5.926455
      pz      :     3.403096  p :    11.026001
      px      :     3.752680
      py      :     3.870225
      dz2     :     0.009013  d :     0.030300
      dxz     :     0.010553
      dyz     :     0.005985
      dx2y2   :     0.002119
      dxy     :     0.002630

 41 Cls       :     5.927229  s :     5.927229
      pz      :     3.615207  p :    11.030933
      px      :     3.939477
      py      :     3.476249
      dz2     :     0.004035  d :     0.028013
      dxz     :     0.001433
      dyz     :     0.013811
      dx2y2   :     0.006593
      dxy     :     0.002140

 42 Cls       :     5.927299  s :     5.927299
      pz      :     3.572491  p :    11.023701
      px      :     3.558585
      py      :     3.892624
      dz2     :     0.004563  d :     0.030331
      dxz     :     0.013838
      dyz     :     0.003216
      dx2y2   :     0.004245
      dxy     :     0.004469

 43 Cls       :     5.926708  s :     5.926708
      pz      :     3.425026  p :    11.025746
      px      :     3.938695
      py      :     3.662026
      dz2     :     0.008494  d :     0.030311
      dxz     :     0.002820
      dyz     :     0.013776
      dx2y2   :     0.003653
      dxy     :     0.001569

 44 Cls       :     5.925639  s :     5.925639
      pz      :     3.935205  p :    11.037861
      px      :     3.935254
      py      :     3.167402
      dz2     :     0.004843  d :     0.029928
      dxz     :     0.000141
      dyz     :     0.005095
      dx2y2   :     0.014220
      dxy     :     0.005629

 45 Cls       :     5.925695  s :     5.925695
      pz      :     3.926762  p :    11.038695
      px      :     3.312943
      py      :     3.798990
      dz2     :     0.004680  d :     0.029900
      dxz     :     0.004803
      dyz     :     0.001000
      dx2y2   :     0.008642
      dxy     :     0.010775

 46 C s       :     3.076499  s :     3.076499
      pz      :     0.872627  p :     2.672606
      px      :     0.968279
      py      :     0.831700
      dz2     :     0.008987  d :     0.060541
      dxz     :     0.010407
      dyz     :     0.010605
      dx2y2   :     0.014291
      dxy     :     0.016251

 47 N s       :     3.652019  s :     3.652019
      pz      :     1.265251  p :     3.682045
      px      :     1.320109
      py      :     1.096685
      dz2     :     0.006314  d :     0.038159
      dxz     :     0.006148
      dyz     :     0.007573
      dx2y2   :     0.010050
      dxy     :     0.008075

 48 C s       :     3.127371  s :     3.127371
      pz      :     0.923481  p :     2.774095
      px      :     0.981070
      py      :     0.869544
      dz2     :     0.009063  d :     0.070272
      dxz     :     0.013642
      dyz     :     0.011658
      dx2y2   :     0.020338
      dxy     :     0.015572

 49 C s       :     3.128788  s :     3.128788
      pz      :     0.960453  p :     2.712563
      px      :     0.864759
      py      :     0.887351
      dz2     :     0.005196  d :     0.039503
      dxz     :     0.008797
      dyz     :     0.006703
      dx2y2   :     0.010151
      dxy     :     0.008655

 50 C s       :     3.192491  s :     3.192491
      pz      :     0.935890  p :     2.863799
      px      :     0.926585
      py      :     1.001324
      dz2     :     0.007683  d :     0.050114
      dxz     :     0.010765
      dyz     :     0.007910
      dx2y2   :     0.012170
      dxy     :     0.011586

 51 C s       :     3.136452  s :     3.136452
      pz      :     1.008763  p :     2.913263
      px      :     0.914422
      py      :     0.990079
      dz2     :     0.003782  d :     0.032515
      dxz     :     0.006425
      dyz     :     0.005528
      dx2y2   :     0.008471
      dxy     :     0.008308

 52 C s       :     3.162289  s :     3.162289
      pz      :     0.999801  p :     2.882318
      px      :     0.943180
      py      :     0.939337
      dz2     :     0.003512  d :     0.039154
      dxz     :     0.004832
      dyz     :     0.004387
      dx2y2   :     0.012680
      dxy     :     0.013743

 53 C s       :     3.121901  s :     3.121901
      pz      :     0.894100  p :     2.700429
      px      :     0.874718
      py      :     0.931611
      dz2     :     0.007225  d :     0.040091
      dxz     :     0.011085
      dyz     :     0.006269
      dx2y2   :     0.007917
      dxy     :     0.007595

 54 C s       :     3.146479  s :     3.146479
      pz      :     0.914219  p :     2.763154
      px      :     0.966441
      py      :     0.882495
      dz2     :     0.008104  d :     0.041706
      dxz     :     0.005765
      dyz     :     0.012145
      dx2y2   :     0.008544
      dxy     :     0.007148

 55 C s       :     3.257082  s :     3.257082
      pz      :     0.891269  p :     2.682130
      px      :     0.914558
      py      :     0.876304
      dz2     :     0.005319  d :     0.031701
      dxz     :     0.003146
      dyz     :     0.009016
      dx2y2   :     0.006579
      dxy     :     0.007641

 56 C s       :     3.160942  s :     3.160942
      pz      :     0.970686  p :     2.911449
      px      :     0.998550
      py      :     0.942212
      dz2     :     0.006175  d :     0.034637
      dxz     :     0.004798
      dyz     :     0.010099
      dx2y2   :     0.006224
      dxy     :     0.007341

 57 C s       :     3.172524  s :     3.172524
      pz      :     1.014017  p :     2.859291
      px      :     1.022325
      py      :     0.822949
      dz2     :     0.010569  d :     0.050619
      dxz     :     0.005856
      dyz     :     0.012714
      dx2y2   :     0.011513
      dxy     :     0.009968

 58 C s       :     3.137247  s :     3.137247
      pz      :     0.995570  p :     2.877413
      px      :     0.995984
      py      :     0.885859
      dz2     :     0.005856  d :     0.033435
      dxz     :     0.004638
      dyz     :     0.009012
      dx2y2   :     0.006450
      dxy     :     0.007479

 59 C s       :     3.178687  s :     3.178687
      pz      :     0.918646  p :     2.879068
      px      :     0.988924
      py      :     0.971498
      dz2     :     0.010181  d :     0.049111
      dxz     :     0.007125
      dyz     :     0.013525
      dx2y2   :     0.008453
      dxy     :     0.009827

 60 C s       :     3.191920  s :     3.191920
      pz      :     0.938330  p :     2.895912
      px      :     0.932342
      py      :     1.025239
      dz2     :     0.009906  d :     0.049071
      dxz     :     0.013146
      dyz     :     0.007021
      dx2y2   :     0.009662
      dxy     :     0.009336

 61 C s       :     3.141982  s :     3.141982
      pz      :     0.995465  p :     2.870360
      px      :     0.879041
      py      :     0.995853
      dz2     :     0.005590  d :     0.033534
      dxz     :     0.008425
      dyz     :     0.005211
      dx2y2   :     0.006646
      dxy     :     0.007663

 62 C s       :     3.182078  s :     3.182078
      pz      :     1.017266  p :     2.863191
      px      :     0.858746
      py      :     0.987180
      dz2     :     0.010215  d :     0.050283
      dxz     :     0.011613
      dyz     :     0.006520
      dx2y2   :     0.010687
      dxy     :     0.011248

 63 C s       :     3.142668  s :     3.142668
      pz      :     0.965389  p :     2.871298
      px      :     0.956580
      py      :     0.949329
      dz2     :     0.006296  d :     0.033552
      dxz     :     0.008281
      dyz     :     0.005208
      dx2y2   :     0.007537
      dxy     :     0.006231

 64 C s       :     3.191384  s :     3.191384
      pz      :     0.899065  p :     2.889320
      px      :     1.026331
      py      :     0.963924
      dz2     :     0.010472  d :     0.049104
      dxz     :     0.011648
      dyz     :     0.008522
      dx2y2   :     0.009204
      dxy     :     0.009259

 65 Cls       :     5.926074  s :     5.926074
      pz      :     3.651343  p :    11.023702
      px      :     3.519774
      py      :     3.852585
      dz2     :     0.003973  d :     0.030147
      dxz     :     0.012196
      dyz     :     0.003305
      dx2y2   :     0.004726
      dxy     :     0.005946

 66 Cls       :     5.926547  s :     5.926547
      pz      :     3.532516  p :    11.032381
      px      :     3.789512
      py      :     3.710352
      dz2     :     0.005251  d :     0.030199
      dxz     :     0.006896
      dyz     :     0.010408
      dx2y2   :     0.002441
      dxy     :     0.005202

 67 Cls       :     5.999072  s :     5.999072
      pz      :     3.997282  p :    10.999475
      px      :     3.007442
      py      :     3.994752
      dz2     :     0.000238  d :     0.000963
      dxz     :     0.000008
      dyz     :     0.000000
      dx2y2   :     0.000703
      dxy     :     0.000014

 68 Cls       :     5.927343  s :     5.927343
      pz      :     3.628636  p :    11.035850
      px      :     3.941645
      py      :     3.465569
      dz2     :     0.003871  d :     0.027944
      dxz     :     0.001354
      dyz     :     0.013656
      dx2y2   :     0.006885
      dxy     :     0.002179

 69 Cls       :     5.927213  s :     5.927213
      pz      :     3.563902  p :    11.023721
      px      :     3.561951
      py      :     3.897868
      dz2     :     0.004661  d :     0.030359
      dxz     :     0.013976
      dyz     :     0.003173
      dx2y2   :     0.004216
      dxy     :     0.004332

 70 Cls       :     5.926812  s :     5.926812
      pz      :     3.412602  p :    11.023191
      px      :     3.938447
      py      :     3.672141
      dz2     :     0.008754  d :     0.030303
      dxz     :     0.002889
      dyz     :     0.013658
      dx2y2   :     0.003476
      dxy     :     0.001527

 71 Cls       :     5.925341  s :     5.925341
      pz      :     3.932345  p :    11.041412
      px      :     3.936051
      py      :     3.173017
      dz2     :     0.004765  d :     0.029912
      dxz     :     0.000158
      dyz     :     0.005285
      dx2y2   :     0.014087
      dxy     :     0.005616

 72 Cls       :     5.925750  s :     5.925750
      pz      :     3.926636  p :    11.038124
      px      :     3.313149
      py      :     3.798340
      dz2     :     0.004680  d :     0.029911
      dxz     :     0.004783
      dyz     :     0.001002
      dx2y2   :     0.008646
      dxy     :     0.010801

 73 O s       :     3.849889  s :     3.849889
      pz      :     1.640221  p :     4.608108
      px      :     1.692294
      py      :     1.275593
      dz2     :     0.004962  d :     0.029193
      dxz     :     0.004738
      dyz     :     0.006484
      dx2y2   :     0.007104
      dxy     :     0.005905

 74 C s       :     3.180995  s :     3.180995
      pz      :     0.919314  p :     2.841913
      px      :     0.960201
      py      :     0.962398
      dz2     :     0.016237  d :     0.056685
      dxz     :     0.009030
      dyz     :     0.009527
      dx2y2   :     0.014398
      dxy     :     0.007493

 75 H s       :     0.854860  s :     0.854860
      pz      :     0.003759  p :     0.012438
      px      :     0.002124
      py      :     0.006554

 76 H s       :     0.895852  s :     0.895852
      pz      :     0.004114  p :     0.012108
      px      :     0.004998
      py      :     0.002996

 77 H s       :     0.878757  s :     0.878757
      pz      :     0.003941  p :     0.012339
      px      :     0.001937
      py      :     0.006462

 78 H s       :     0.874887  s :     0.874887
      pz      :     0.004112  p :     0.012256
      px      :     0.005334
      py      :     0.002810

 79 H s       :     0.878296  s :     0.878296
      pz      :     0.004749  p :     0.012141
      px      :     0.004031
      py      :     0.003361

 80 H s       :     0.880126  s :     0.880126
      pz      :     0.004792  p :     0.012196
      px      :     0.004025
      py      :     0.003379

 81 H s       :     0.889008  s :     0.889008
      pz      :     0.004972  p :     0.012504
      px      :     0.004351
      py      :     0.003180

 82 H s       :     0.879403  s :     0.879403
      pz      :     0.004830  p :     0.012150
      px      :     0.004015
      py      :     0.003306

 83 H s       :     0.879223  s :     0.879223
      pz      :     0.003799  p :     0.012350
      px      :     0.001939
      py      :     0.006612

 84 H s       :     0.895797  s :     0.895797
      pz      :     0.004015  p :     0.012108
      px      :     0.005004
      py      :     0.003089

 85 H s       :     0.855624  s :     0.855624
      pz      :     0.003603  p :     0.012424
      px      :     0.002130
      py      :     0.006691

 86 H s       :     0.874491  s :     0.874491
      pz      :     0.004050  p :     0.012256
      px      :     0.005320
      py      :     0.002886

 87 H s       :     0.861826  s :     0.861826
      pz      :     0.004356  p :     0.012447
      px      :     0.001863
      py      :     0.006228

 88 H s       :     0.842114  s :     0.842114
      pz      :     0.004874  p :     0.012421
      px      :     0.003553
      py      :     0.003994

 89 H s       :     0.841956  s :     0.841956
      pz      :     0.005895  p :     0.012423
      px      :     0.003986
      py      :     0.002541

 90 H s       :     0.842460  s :     0.842460
      pz      :     0.005796  p :     0.012418
      px      :     0.001780
      py      :     0.004842

 91 H s       :     0.842055  s :     0.842055
      pz      :     0.004462  p :     0.012419
      px      :     0.005465
      py      :     0.002492

 92 H s       :     0.861996  s :     0.861996
      pz      :     0.004278  p :     0.012445
      px      :     0.001862
      py      :     0.006304

 93 H s       :     0.851222  s :     0.851222
      pz      :     0.004715  p :     0.012294
      px      :     0.003586
      py      :     0.003993

 94 H s       :     0.841598  s :     0.841598
      pz      :     0.005929  p :     0.012434
      px      :     0.004008
      py      :     0.002496

 95 H s       :     0.841855  s :     0.841855
      pz      :     0.005865  p :     0.012421
      px      :     0.001786
      py      :     0.004770

 96 H s       :     0.841635  s :     0.841635
      pz      :     0.004514  p :     0.012414
      px      :     0.005436
      py      :     0.002464

 97 H s       :     0.859780  s :     0.859780
      pz      :     0.001977  p :     0.010624
      px      :     0.002048
      py      :     0.006599

 98 H s       :     0.877218  s :     0.877218
      pz      :     0.001862  p :     0.010838
      px      :     0.006992
      py      :     0.001984

 99 H s       :     0.877101  s :     0.877101
      pz      :     0.006602  p :     0.010839
      px      :     0.002276
      py      :     0.001961


SPIN
  0 C s       :    -0.003586  s :    -0.003586
      pz      :    -0.014547  p :    -0.027058
      px      :    -0.003940
      py      :    -0.008571
      dz2     :     0.000034  d :     0.000245
      dxz     :     0.000084
      dyz     :     0.000055
      dx2y2   :     0.000030
      dxy     :     0.000041

  1 C s       :     0.004973  s :     0.004973
      pz      :     0.014309  p :     0.030213
      px      :     0.006956
      py      :     0.008948
      dz2     :    -0.000078  d :    -0.000848
      dxz     :    -0.000345
      dyz     :    -0.000130
      dx2y2   :    -0.000212
      dxy     :    -0.000083

  2 C s       :    -0.003691  s :    -0.003691
      pz      :    -0.015138  p :    -0.027252
      px      :    -0.004161
      py      :    -0.007952
      dz2     :     0.000030  d :     0.000248
      dxz     :     0.000071
      dyz     :     0.000070
      dx2y2   :     0.000056
      dxy     :     0.000020

  3 C s       :     0.002619  s :     0.002619
      pz      :     0.008660  p :     0.015789
      px      :     0.002616
      py      :     0.004513
      dz2     :    -0.000073  d :    -0.000342
      dxz     :    -0.000118
      dyz     :    -0.000032
      dx2y2   :    -0.000033
      dxy     :    -0.000087

  4 C s       :    -0.003039  s :    -0.003039
      pz      :    -0.015094  p :    -0.026237
      px      :    -0.003415
      py      :    -0.007728
      dz2     :     0.000076  d :     0.000079
      dxz     :    -0.000056
      dyz     :     0.000015
      dx2y2   :     0.000019
      dxy     :     0.000025

  5 C s       :     0.002700  s :     0.002700
      pz      :     0.009258  p :     0.016619
      px      :     0.002916
      py      :     0.004445
      dz2     :    -0.000059  d :    -0.000344
      dxz     :    -0.000087
      dyz     :    -0.000067
      dx2y2   :    -0.000121
      dxy     :    -0.000010

  6 N s       :    -0.000011  s :    -0.000011
      pz      :    -0.009267  p :    -0.007933
      px      :     0.001011
      py      :     0.000323
      dz2     :     0.000027  d :    -0.000244
      dxz     :    -0.000106
      dyz     :    -0.000022
      dx2y2   :    -0.000131
      dxy     :    -0.000012

  7 C s       :    -0.003062  s :    -0.003062
      pz      :    -0.015791  p :    -0.026380
      px      :    -0.003366
      py      :    -0.007224
      dz2     :     0.000076  d :     0.000082
      dxz     :    -0.000055
      dyz     :     0.000018
      dx2y2   :     0.000018
      dxy     :     0.000024

  8 C s       :     0.000317  s :     0.000317
      pz      :     0.001063  p :     0.002259
      px      :     0.001067
      py      :     0.000128
      dz2     :    -0.000006  d :    -0.000156
      dxz     :    -0.000005
      dyz     :    -0.000140
      dx2y2   :    -0.000008
      dxy     :     0.000002

  9 C s       :    -0.000358  s :    -0.000358
      pz      :    -0.000599  p :    -0.002494
      px      :    -0.001797
      py      :    -0.000097
      dz2     :     0.000005  d :     0.000027
      dxz     :     0.000004
      dyz     :     0.000005
      dx2y2   :     0.000003
      dxy     :     0.000009

 10 C s       :     0.000267  s :     0.000267
      pz      :     0.000607  p :     0.001681
      px      :     0.000908
      py      :     0.000166
      dz2     :    -0.000006  d :    -0.000036
      dxz     :    -0.000002
      dyz     :    -0.000005
      dx2y2   :    -0.000003
      dxy     :    -0.000018

 11 C s       :    -0.000273  s :    -0.000273
      pz      :    -0.001024  p :    -0.002327
      px      :    -0.001212
      py      :    -0.000091
      dz2     :     0.000008  d :     0.000016
      dxz     :     0.000006
      dyz     :    -0.000001
      dx2y2   :     0.000003
      dxy     :    -0.000000

 12 C s       :     0.000266  s :     0.000266
      pz      :     0.000578  p :     0.001620
      px      :     0.000860
      py      :     0.000181
      dz2     :    -0.000007  d :    -0.000040
      dxz     :    -0.000002
      dyz     :    -0.000006
      dx2y2   :    -0.000003
      dxy     :    -0.000021

 13 C s       :    -0.000403  s :    -0.000403
      pz      :    -0.000702  p :    -0.002881
      px      :    -0.002079
      py      :    -0.000100
      dz2     :     0.000005  d :     0.000027
      dxz     :     0.000005
      dyz     :     0.000005
      dx2y2   :     0.000004
      dxy     :     0.000008

 14 C s       :     0.002651  s :     0.002651
      pz      :     0.009101  p :     0.015963
      px      :     0.002611
      py      :     0.004250
      dz2     :    -0.000076  d :    -0.000347
      dxz     :    -0.000128
      dyz     :    -0.000030
      dx2y2   :    -0.000030
      dxy     :    -0.000082

 15 C s       :    -0.003761  s :    -0.003761
      pz      :    -0.016130  p :    -0.027697
      px      :    -0.004140
      py      :    -0.007427
      dz2     :     0.000032  d :     0.000252
      dxz     :     0.000073
      dyz     :     0.000073
      dx2y2   :     0.000054
      dxy     :     0.000019

 16 C s       :     0.005065  s :     0.005065
      pz      :     0.014969  p :     0.030728
      px      :     0.007057
      py      :     0.008702
      dz2     :    -0.000079  d :    -0.000863
      dxz     :    -0.000353
      dyz     :    -0.000139
      dx2y2   :    -0.000212
      dxy     :    -0.000080

 17 C s       :    -0.003642  s :    -0.003642
      pz      :    -0.015328  p :    -0.026967
      px      :    -0.003878
      py      :    -0.007761
      dz2     :     0.000038  d :     0.000250
      dxz     :     0.000089
      dyz     :     0.000054
      dx2y2   :     0.000029
      dxy     :     0.000040

 18 C s       :     0.002721  s :     0.002721
      pz      :     0.009693  p :     0.016792
      px      :     0.002912
      py      :     0.004187
      dz2     :    -0.000056  d :    -0.000347
      dxz     :    -0.000090
      dyz     :    -0.000077
      dx2y2   :    -0.000115
      dxy     :    -0.000009

 19 C s       :    -0.012146  s :    -0.012146
      pz      :    -0.059075  p :    -0.099130
      px      :    -0.014222
      py      :    -0.025833
      dz2     :     0.000379  d :     0.000938
      dxz     :     0.000156
      dyz     :     0.000184
      dx2y2   :     0.000126
      dxy     :     0.000093

 20 N s       :     0.004745  s :     0.004745
      pz      :     0.029979  p :     0.053207
      px      :     0.004375
      py      :     0.018854
      dz2     :    -0.000317  d :    -0.001291
      dxz     :    -0.000309
      dyz     :    -0.000177
      dx2y2   :    -0.000430
      dxy     :    -0.000057

 21 C s       :    -0.016750  s :    -0.016750
      pz      :    -0.042942  p :    -0.101951
      px      :    -0.026936
      py      :    -0.032072
      dz2     :     0.000245  d :     0.001220
      dxz     :     0.000450
      dyz     :     0.000141
      dx2y2   :     0.000267
      dxy     :     0.000118

 22 C s       :     0.029929  s :     0.029929
      pz      :     0.078778  p :     0.149440
      px      :     0.035761
      py      :     0.034901
      dz2     :    -0.000250  d :    -0.006684
      dxz     :    -0.004062
      dyz     :    -0.002097
      dx2y2   :    -0.000185
      dxy     :    -0.000089

 23 C s       :    -0.016972  s :    -0.016972
      pz      :    -0.042857  p :    -0.105713
      px      :    -0.014594
      py      :    -0.048263
      dz2     :     0.000272  d :     0.001204
      dxz     :     0.000225
      dyz     :     0.000335
      dx2y2   :     0.000265
      dxy     :     0.000107

 24 C s       :     0.010535  s :     0.010535
      pz      :     0.036754  p :     0.069027
      px      :     0.012622
      py      :     0.019650
      dz2     :    -0.000235  d :    -0.001361
      dxz     :    -0.000376
      dyz     :    -0.000130
      dx2y2   :    -0.000345
      dxy     :    -0.000276

 25 C s       :    -0.099365  s :    -0.099365
      pz      :    -0.640579  p :    -0.724167
      px      :    -0.043125
      py      :    -0.040462
      dz2     :     0.001798  d :     0.002853
      dxz     :     0.000267
      dyz     :     0.000135
      dx2y2   :     0.000262
      dxy     :     0.000392

 26 C s       :     0.028512  s :     0.028512
      pz      :     0.050037  p :     0.132315
      px      :     0.036783
      py      :     0.045494
      dz2     :    -0.000542  d :    -0.006339
      dxz     :    -0.004358
      dyz     :    -0.001064
      dx2y2   :    -0.000118
      dxy     :    -0.000258

 27 C s       :     0.028525  s :     0.028525
      pz      :     0.046571  p :     0.133514
      px      :     0.046993
      py      :     0.039950
      dz2     :    -0.000364  d :    -0.006331
      dxz     :    -0.000182
      dyz     :    -0.005381
      dx2y2   :    -0.000190
      dxy     :    -0.000213

 28 C s       :    -0.016397  s :    -0.016397
      pz      :    -0.019987  p :    -0.099514
      px      :    -0.070409
      py      :    -0.009117
      dz2     :     0.000184  d :     0.001024
      dxz     :     0.000160
      dyz     :     0.000154
      dx2y2   :     0.000129
      dxy     :     0.000398

 29 C s       :     0.009402  s :     0.009402
      pz      :     0.018804  p :     0.061455
      px      :     0.038035
      py      :     0.004616
      dz2     :    -0.000259  d :    -0.001310
      dxz     :    -0.000142
      dyz     :    -0.000125
      dx2y2   :    -0.000149
      dxy     :    -0.000634

 30 C s       :    -0.010755  s :    -0.010755
      pz      :    -0.031809  p :    -0.089826
      px      :    -0.053675
      py      :    -0.004341
      dz2     :     0.000308  d :     0.000844
      dxz     :     0.000242
      dyz     :     0.000033
      dx2y2   :     0.000156
      dxy     :     0.000106

 31 C s       :     0.009384  s :     0.009384
      pz      :     0.018668  p :     0.061408
      px      :     0.037908
      py      :     0.004832
      dz2     :    -0.000160  d :    -0.001314
      dxz     :    -0.000106
      dyz     :    -0.000183
      dx2y2   :    -0.000094
      dxy     :    -0.000771

 32 C s       :    -0.016429  s :    -0.016429
      pz      :    -0.018955  p :    -0.099505
      px      :    -0.072898
      py      :    -0.007652
      dz2     :     0.000267  d :     0.001014
      dxz     :     0.000156
      dyz     :     0.000129
      dx2y2   :     0.000104
      dxy     :     0.000358

 33 C s       :    -0.016419  s :    -0.016419
      pz      :    -0.022074  p :    -0.098659
      px      :    -0.010251
      py      :    -0.066334
      dz2     :     0.000290  d :     0.001006
      dxz     :     0.000166
      dyz     :     0.000132
      dx2y2   :     0.000262
      dxy     :     0.000156

 34 C s       :     0.009305  s :     0.009305
      pz      :     0.020972  p :     0.060878
      px      :     0.008363
      py      :     0.031543
      dz2     :    -0.000147  d :    -0.001304
      dxz     :    -0.000210
      dyz     :    -0.000126
      dx2y2   :    -0.000268
      dxy     :    -0.000553

 35 C s       :    -0.010658  s :    -0.010658
      pz      :    -0.035664  p :    -0.088941
      px      :    -0.008669
      py      :    -0.044608
      dz2     :     0.000323  d :     0.000837
      dxz     :     0.000063
      dyz     :     0.000199
      dx2y2   :     0.000114
      dxy     :     0.000138

 36 C s       :     0.009322  s :     0.009322
      pz      :     0.021192  p :     0.060932
      px      :     0.007440
      py      :     0.032300
      dz2     :    -0.000301  d :    -0.001302
      dxz     :    -0.000175
      dyz     :    -0.000090
      dx2y2   :    -0.000531
      dxy     :    -0.000206

 37 C s       :    -0.016337  s :    -0.016337
      pz      :    -0.023641  p :    -0.098867
      px      :    -0.021157
      py      :    -0.054069
      dz2     :     0.000165  d :     0.001015
      dxz     :     0.000196
      dyz     :     0.000166
      dx2y2   :     0.000193
      dxy     :     0.000295

 38 Cls       :    -0.000162  s :    -0.000162
      pz      :    -0.001489  p :    -0.002238
      px      :     0.000297
      py      :    -0.001046
      dz2     :    -0.000217  d :    -0.000541
      dxz     :    -0.000049
      dyz     :    -0.000009
      dx2y2   :    -0.000028
      dxy     :    -0.000238

 39 Cls       :    -0.000157  s :    -0.000157
      pz      :     0.000877  p :    -0.001593
      px      :    -0.003431
      py      :     0.000961
      dz2     :    -0.000139  d :    -0.000531
      dxz     :    -0.000085
      dyz     :     0.000011
      dx2y2   :    -0.000079
      dxy     :    -0.000239

 40 Cls       :    -0.000186  s :    -0.000186
      pz      :     0.001885  p :    -0.002117
      px      :    -0.003779
      py      :    -0.000224
      dz2     :    -0.000168  d :    -0.000547
      dxz     :    -0.000144
      dyz     :     0.000017
      dx2y2   :    -0.000143
      dxy     :    -0.000109

 41 Cls       :    -0.000046  s :    -0.000046
      pz      :    -0.000591  p :    -0.004126
      px      :    -0.000271
      py      :    -0.003263
      dz2     :    -0.000224  d :    -0.000494
      dxz     :    -0.000001
      dyz     :    -0.000031
      dx2y2   :    -0.000208
      dxy     :    -0.000029

 42 Cls       :    -0.000163  s :    -0.000163
      pz      :     0.000166  p :    -0.001572
      px      :     0.000794
      py      :    -0.002532
      dz2     :    -0.000144  d :    -0.000531
      dxz     :    -0.000003
      dyz     :    -0.000049
      dx2y2   :    -0.000016
      dxy     :    -0.000318

 43 Cls       :    -0.000196  s :    -0.000196
      pz      :     0.001552  p :    -0.002021
      px      :    -0.000201
      py      :    -0.003372
      dz2     :    -0.000192  d :    -0.000546
      dxz     :    -0.000007
      dyz     :    -0.000094
      dx2y2   :    -0.000255
      dxy     :     0.000002

 44 Cls       :    -0.000239  s :    -0.000239
      pz      :    -0.002456  p :    -0.004681
      px      :    -0.006132
      py      :     0.003907
      dz2     :    -0.000004  d :    -0.000538
      dxz     :    -0.000001
      dyz     :    -0.000154
      dx2y2   :    -0.000030
      dxy     :    -0.000349

 45 Cls       :    -0.000235  s :    -0.000235
      pz      :    -0.002816  p :    -0.004559
      px      :     0.002539
      py      :    -0.004282
      dz2     :    -0.000012  d :    -0.000534
      dxz     :    -0.000166
      dyz     :    -0.000013
      dx2y2   :    -0.000166
      dxy     :    -0.000178

 46 C s       :    -0.012358  s :    -0.012358
      pz      :    -0.060916  p :    -0.100867
      px      :    -0.014593
      py      :    -0.025358
      dz2     :     0.000385  d :     0.000954
      dxz     :     0.000165
      dyz     :     0.000191
      dx2y2   :     0.000123
      dxy     :     0.000090

 47 N s       :     0.004887  s :     0.004887
      pz      :     0.030912  p :     0.054264
      px      :     0.004806
      py      :     0.018546
      dz2     :    -0.000303  d :    -0.001318
      dxz     :    -0.000320
      dyz     :    -0.000203
      dx2y2   :    -0.000435
      dxy     :    -0.000057

 48 C s       :    -0.016948  s :    -0.016948
      pz      :    -0.044248  p :    -0.102601
      px      :    -0.026853
      py      :    -0.031500
      dz2     :     0.000256  d :     0.001232
      dxz     :     0.000455
      dyz     :     0.000140
      dx2y2   :     0.000265
      dxy     :     0.000117

 49 C s       :     0.029745  s :     0.029745
      pz      :     0.079455  p :     0.149342
      px      :     0.035705
      py      :     0.034181
      dz2     :    -0.000237  d :    -0.006730
      dxz     :    -0.004152
      dyz     :    -0.002090
      dx2y2   :    -0.000163
      dxy     :    -0.000088

 50 C s       :    -0.017133  s :    -0.017133
      pz      :    -0.044806  p :    -0.107335
      px      :    -0.014963
      py      :    -0.047566
      dz2     :     0.000267  d :     0.001213
      dxz     :     0.000225
      dyz     :     0.000353
      dx2y2   :     0.000263
      dxy     :     0.000104

 51 C s       :     0.010686  s :     0.010686
      pz      :     0.037710  p :     0.070119
      px      :     0.012938
      py      :     0.019471
      dz2     :    -0.000249  d :    -0.001389
      dxz     :    -0.000386
      dyz     :    -0.000132
      dx2y2   :    -0.000347
      dxy     :    -0.000276

 52 C s       :    -0.093863  s :    -0.093863
      pz      :    -0.642507  p :    -0.717696
      px      :    -0.040370
      py      :    -0.034818
      dz2     :     0.001817  d :     0.002501
      dxz     :     0.000271
      dyz     :     0.000066
      dx2y2   :     0.000314
      dxy     :     0.000032

 53 C s       :     0.029195  s :     0.029195
      pz      :     0.049720  p :     0.135622
      px      :     0.037745
      py      :     0.048157
      dz2     :    -0.000570  d :    -0.006502
      dxz     :    -0.004441
      dyz     :    -0.001085
      dx2y2   :    -0.000118
      dxy     :    -0.000288

 54 C s       :     0.016933  s :     0.016933
      pz      :     0.019965  p :     0.059454
      px      :     0.002443
      py      :     0.037045
      dz2     :     0.001390  d :    -0.000675
      dxz     :     0.001016
      dyz     :    -0.005045
      dx2y2   :     0.001892
      dxy     :     0.000072

 55 C s       :     0.146836  s :     0.146836
      pz      :     0.459054  p :     0.773193
      px      :     0.197340
      py      :     0.116799
      dz2     :    -0.000902  d :    -0.002228
      dxz     :     0.000134
      dyz     :    -0.000836
      dx2y2   :    -0.000383
      dxy     :    -0.000241

 56 C s       :    -0.001637  s :    -0.001637
      pz      :    -0.014672  p :    -0.024266
      px      :    -0.010527
      py      :     0.000933
      dz2     :     0.000111  d :     0.005256
      dxz     :     0.000102
      dyz     :     0.003412
      dx2y2   :     0.000337
      dxy     :     0.001295

 57 C s       :     0.005179  s :     0.005179
      pz      :    -0.005778  p :    -0.032791
      px      :    -0.024594
      py      :    -0.002418
      dz2     :     0.000063  d :     0.000417
      dxz     :     0.000161
      dyz     :    -0.000064
      dx2y2   :     0.000231
      dxy     :     0.000026

 58 C s       :     0.002632  s :     0.002632
      pz      :     0.001230  p :     0.006707
      px      :     0.004069
      py      :     0.001408
      dz2     :    -0.000085  d :    -0.000879
      dxz     :    -0.000013
      dyz     :    -0.000137
      dx2y2   :    -0.000030
      dxy     :    -0.000614

 59 C s       :    -0.002117  s :    -0.002117
      pz      :    -0.004391  p :    -0.049107
      px      :    -0.048585
      py      :     0.003869
      dz2     :     0.000108  d :     0.000981
      dxz     :     0.000191
      dyz     :     0.000464
      dx2y2   :    -0.000034
      dxy     :     0.000252

 60 C s       :    -0.016922  s :    -0.016922
      pz      :    -0.022860  p :    -0.103735
      px      :    -0.011163
      py      :    -0.069713
      dz2     :     0.000303  d :     0.001065
      dxz     :     0.000173
      dyz     :     0.000137
      dx2y2   :     0.000291
      dxy     :     0.000162

 61 C s       :     0.009834  s :     0.009834
      pz      :     0.021408  p :     0.064391
      px      :     0.008957
      py      :     0.034025
      dz2     :    -0.000153  d :    -0.001378
      dxz     :    -0.000211
      dyz     :    -0.000136
      dx2y2   :    -0.000289
      dxy     :    -0.000589

 62 C s       :    -0.011219  s :    -0.011219
      pz      :    -0.036260  p :    -0.093493
      px      :    -0.009330
      py      :    -0.047904
      dz2     :     0.000336  d :     0.000885
      dxz     :     0.000066
      dyz     :     0.000213
      dx2y2   :     0.000122
      dxy     :     0.000148

 63 C s       :     0.009807  s :     0.009807
      pz      :     0.021627  p :     0.064122
      px      :     0.008105
      py      :     0.034390
      dz2     :    -0.000310  d :    -0.001375
      dxz     :    -0.000182
      dyz     :    -0.000097
      dx2y2   :    -0.000565
      dxy     :    -0.000220

 64 C s       :    -0.016839  s :    -0.016839
      pz      :    -0.023789  p :    -0.103264
      px      :    -0.021784
      py      :    -0.057691
      dz2     :     0.000169  d :     0.001051
      dxz     :     0.000188
      dyz     :     0.000180
      dx2y2   :     0.000195
      dxy     :     0.000319

 65 Cls       :    -0.000160  s :    -0.000160
      pz      :    -0.001495  p :    -0.002232
      px      :     0.000204
      py      :    -0.000941
      dz2     :    -0.000227  d :    -0.000560
      dxz     :    -0.000050
      dyz     :    -0.000008
      dx2y2   :    -0.000030
      dxy     :    -0.000245

 66 Cls       :    -0.000806  s :    -0.000806
      pz      :     0.014816  p :     0.017515
      px      :     0.003000
      py      :    -0.000300
      dz2     :    -0.000066  d :    -0.000419
      dxz     :    -0.000100
      dyz     :    -0.000007
      dx2y2   :    -0.000030
      dxy     :    -0.000215

 67 Cls       :    -0.000751  s :    -0.000751
      pz      :     0.002698  p :     0.999879
      px      :     0.992482
      py      :     0.004699
      dz2     :     0.000189  d :     0.000758
      dxz     :     0.000006
      dyz     :     0.000000
      dx2y2   :     0.000553
      dxy     :     0.000010

 68 Cls       :    -0.000015  s :    -0.000015
      pz      :    -0.000651  p :    -0.004097
      px      :    -0.000221
      py      :    -0.003225
      dz2     :    -0.000225  d :    -0.000505
      dxz     :    -0.000005
      dyz     :    -0.000037
      dx2y2   :    -0.000208
      dxy     :    -0.000029

 69 Cls       :    -0.000162  s :    -0.000162
      pz      :     0.000351  p :    -0.001695
      px      :     0.000701
      py      :    -0.002748
      dz2     :    -0.000152  d :    -0.000570
      dxz     :    -0.000003
      dyz     :    -0.000057
      dx2y2   :    -0.000019
      dxy     :    -0.000339

 70 Cls       :    -0.000251  s :    -0.000251
      pz      :     0.001809  p :    -0.002468
      px      :    -0.000463
      py      :    -0.003815
      dz2     :    -0.000200  d :    -0.000582
      dxz     :    -0.000016
      dyz     :    -0.000108
      dx2y2   :    -0.000258
      dxy     :    -0.000000

 71 Cls       :    -0.000751  s :    -0.000751
      pz      :     0.000957  p :     0.010114
      px      :    -0.003394
      py      :     0.012551
      dz2     :    -0.000025  d :    -0.000374
      dxz     :    -0.000001
      dyz     :    -0.000049
      dx2y2   :    -0.000095
      dxy     :    -0.000204

 72 Cls       :    -0.000244  s :    -0.000244
      pz      :    -0.002810  p :    -0.004689
      px      :     0.002653
      py      :    -0.004532
      dz2     :    -0.000012  d :    -0.000566
      dxz     :    -0.000170
      dyz     :    -0.000012
      dx2y2   :    -0.000181
      dxy     :    -0.000191

 73 O s       :    -0.000009  s :    -0.000009
      pz      :    -0.000165  p :    -0.000355
      px      :    -0.000236
      py      :     0.000046
      dz2     :     0.000000  d :    -0.000004
      dxz     :     0.000000
      dyz     :    -0.000002
      dx2y2   :     0.000000
      dxy     :    -0.000002

 74 C s       :     0.000007  s :     0.000007
      pz      :     0.000015  p :     0.000038
      px      :     0.000016
      py      :     0.000006
      dz2     :    -0.000003  d :    -0.000004
      dxz     :    -0.000000
      dyz     :    -0.000000
      dx2y2   :    -0.000001
      dxy     :    -0.000000

 75 H s       :     0.001195  s :     0.001195
      pz      :    -0.000043  p :    -0.000067
      px      :    -0.000010
      py      :    -0.000015

 76 H s       :     0.001385  s :     0.001385
      pz      :    -0.000050  p :    -0.000074
      px      :    -0.000007
      py      :    -0.000018

 77 H s       :    -0.000669  s :    -0.000669
      pz      :     0.000024  p :     0.000039
      px      :     0.000004
      py      :     0.000012

 78 H s       :    -0.000703  s :    -0.000703
      pz      :     0.000024  p :     0.000041
      px      :     0.000005
      py      :     0.000011

 79 H s       :     0.000139  s :     0.000139
      pz      :    -0.000002  p :    -0.000007
      px      :    -0.000003
      py      :    -0.000002

 80 H s       :    -0.000093  s :    -0.000093
      pz      :     0.000002  p :     0.000004
      px      :     0.000003
      py      :     0.000000

 81 H s       :    -0.000087  s :    -0.000087
      pz      :     0.000002  p :     0.000004
      px      :     0.000003
      py      :     0.000000

 82 H s       :     0.000160  s :     0.000160
      pz      :    -0.000003  p :    -0.000008
      px      :    -0.000004
      py      :    -0.000001

 83 H s       :    -0.000676  s :    -0.000676
      pz      :     0.000025  p :     0.000040
      px      :     0.000004
      py      :     0.000011

 84 H s       :     0.001410  s :     0.001410
      pz      :    -0.000053  p :    -0.000076
      px      :    -0.000006
      py      :    -0.000016

 85 H s       :     0.000947  s :     0.000947
      pz      :    -0.000045  p :    -0.000069
      px      :    -0.000010
      py      :    -0.000014

 86 H s       :    -0.000717  s :    -0.000717
      pz      :     0.000026  p :     0.000041
      px      :     0.000005
      py      :     0.000010

 87 H s       :    -0.003878  s :    -0.003878
      pz      :     0.000103  p :     0.000187
      px      :     0.000026
      py      :     0.000058

 88 H s       :    -0.003270  s :    -0.003270
      pz      :     0.000044  p :     0.000162
      px      :     0.000112
      py      :     0.000006

 89 H s       :    -0.003328  s :    -0.003328
      pz      :     0.000047  p :     0.000163
      px      :     0.000111
      py      :     0.000004

 90 H s       :    -0.003300  s :    -0.003300
      pz      :     0.000055  p :     0.000161
      px      :     0.000015
      py      :     0.000091

 91 H s       :    -0.003263  s :    -0.003263
      pz      :     0.000052  p :     0.000161
      px      :     0.000016
      py      :     0.000094

 92 H s       :    -0.003935  s :    -0.003935
      pz      :     0.000106  p :     0.000190
      px      :     0.000026
      py      :     0.000057

 93 H s       :     0.016279  s :     0.016279
      pz      :    -0.000014  p :    -0.000012
      px      :    -0.000005
      py      :     0.000007

 94 H s       :    -0.001108  s :    -0.001108
      pz      :    -0.000001  p :     0.000008
      px      :     0.000004
      py      :     0.000004

 95 H s       :    -0.003459  s :    -0.003459
      pz      :     0.000057  p :     0.000171
      px      :     0.000017
      py      :     0.000098

 96 H s       :    -0.003413  s :    -0.003413
      pz      :     0.000053  p :     0.000170
      px      :     0.000017
      py      :     0.000100

 97 H s       :     0.000001  s :     0.000001
      pz      :     0.000000  p :     0.000000
      px      :     0.000000
      py      :    -0.000000

 98 H s       :    -0.000038  s :    -0.000038
      pz      :     0.000000  p :     0.000000
      px      :     0.000000
      py      :     0.000000

 99 H s       :    -0.000036  s :    -0.000036
      pz      :     0.000000  p :     0.000000
      px      :     0.000000
      py      :     0.000000



                     *******************************
                     * LOEWDIN POPULATION ANALYSIS *
                     *******************************

-------------------------------------------
LOEWDIN ATOMIC CHARGES AND SPIN POPULATIONS
-------------------------------------------
   0 C :   -0.038322   -0.022998
   1 C :   -0.047513    0.019249
   2 C :   -0.056253   -0.023044
   3 C :   -0.091703    0.011550
   4 C :    0.046025   -0.021918
   5 C :   -0.091506    0.012335
   6 N :   -0.041488   -0.010352
   7 C :    0.045336   -0.022022
   8 C :    0.003249    0.001297
   9 C :   -0.067165   -0.002112
  10 C :   -0.090026    0.001277
  11 C :    0.079147   -0.001946
  12 C :   -0.123952    0.001191
  13 C :   -0.067486   -0.002472
  14 C :   -0.092515    0.011672
  15 C :   -0.056019   -0.023424
  16 C :   -0.047038    0.019592
  17 C :   -0.037903   -0.023111
  18 C :   -0.091305    0.012481
  19 C :    0.058274   -0.083587
  20 N :   -0.114273    0.040459
  21 C :   -0.016354   -0.093131
  22 C :   -0.062570    0.085632
  23 C :   -0.042605   -0.093187
  24 C :   -0.098493    0.053241
  25 C :    0.018291   -0.655313
  26 C :   -0.040020    0.073333
  27 C :   -0.039133    0.074075
  28 C :   -0.058685   -0.088791
  29 C :   -0.082628    0.046971
  30 C :   -0.069858   -0.077627
  31 C :   -0.082530    0.046899
  32 C :   -0.058236   -0.088942
  33 C :   -0.059214   -0.088287
  34 C :   -0.083311    0.046478
  35 C :   -0.070438   -0.076853
  36 C :   -0.083289    0.046561
  37 C :   -0.059655   -0.088409
  38 Cl:    0.064449   -0.004627
  39 Cl:    0.058505   -0.003966
  40 Cl:    0.060936   -0.004616
  41 Cl:    0.047752   -0.006288
  42 Cl:    0.061278   -0.003933
  43 Cl:    0.060738   -0.004494
  44 Cl:    0.056716   -0.007331
  45 Cl:    0.055881   -0.007187
  46 C :    0.057463   -0.085054
  47 N :   -0.114768    0.041325
  48 C :   -0.016883   -0.093829
  49 C :   -0.062583    0.085122
  50 C :   -0.043375   -0.094636
  51 C :   -0.098089    0.054037
  52 C :    0.018781   -0.648658
  53 C :   -0.039871    0.075197
  54 C :   -0.050366    0.056921
  55 C :    0.058523    0.848219
  56 C :   -0.101490    0.018767
  57 C :   -0.069332   -0.021302
  58 C :   -0.085042    0.001183
  59 C :   -0.060702   -0.038286
  60 C :   -0.063070   -0.092708
  61 C :   -0.083918    0.049233
  62 C :   -0.071184   -0.080743
  63 C :   -0.084066    0.048950
  64 C :   -0.058922   -0.092336
  65 Cl:    0.063578   -0.004680
  66 Cl:    0.054981    0.012954
  67 Cl:    0.000135    0.999902
  68 Cl:    0.044285   -0.006157
  69 Cl:    0.060810   -0.004186
  70 Cl:    0.062850   -0.005116
  71 Cl:    0.053864    0.005302
  72 Cl:    0.056177   -0.007458
  73 O :   -0.161248   -0.000458
  74 C :   -0.046233    0.000012
  75 H :    0.093330    0.000308
  76 H :    0.075953    0.000357
  77 H :    0.084680   -0.000147
  78 H :    0.085624   -0.000169
  79 H :    0.085898    0.000034
  80 H :    0.086278   -0.000032
  81 H :    0.079929   -0.000029
  82 H :    0.084947    0.000038
  83 H :    0.084456   -0.000149
  84 H :    0.076000    0.000361
  85 H :    0.093103    0.000251
  86 H :    0.085758   -0.000173
  87 H :    0.091823   -0.001238
  88 H :    0.102366   -0.001110
  89 H :    0.102442   -0.001152
  90 H :    0.102170   -0.001144
  91 H :    0.102330   -0.001115
  92 H :    0.091754   -0.001250
  93 H :    0.098603    0.013595
  94 H :    0.101991   -0.000694
  95 H :    0.102366   -0.001178
  96 H :    0.102445   -0.001158
  97 H :    0.081426    0.000001
  98 H :    0.064450   -0.000024
  99 H :    0.064482   -0.000024

----------------------------------------------------
LOEWDIN REDUCED ORBITAL CHARGES AND SPIN POPULATIONS
----------------------------------------------------
CHARGE
  0 C s       :     2.891402  s :     2.891402
      pz      :     0.986019  p :     3.063078
      px      :     1.041373
      py      :     1.035687
      dz2     :     0.008937  d :     0.083842
      dxz     :     0.018463
      dyz     :     0.010169
      dx2y2   :     0.023735
      dxy     :     0.022538

  1 C s       :     2.861387  s :     2.861387
      pz      :     1.033389  p :     3.086796
      px      :     1.018958
      py      :     1.034450
      dz2     :     0.013966  d :     0.099330
      dxz     :     0.016781
      dyz     :     0.015373
      dx2y2   :     0.025708
      dxy     :     0.027502

  2 C s       :     2.888393  s :     2.888393
      pz      :     0.999449  p :     3.083094
      px      :     1.053089
      py      :     1.030555
      dz2     :     0.008503  d :     0.084767
      dxz     :     0.016123
      dyz     :     0.013195
      dx2y2   :     0.023702
      dxy     :     0.023244

  3 C s       :     2.889247  s :     2.889247
      pz      :     1.015350  p :     3.121022
      px      :     1.051764
      py      :     1.053909
      dz2     :     0.008442  d :     0.081433
      dxz     :     0.018588
      dyz     :     0.009933
      dx2y2   :     0.023053
      dxy     :     0.021417

  4 C s       :     2.851153  s :     2.851153
      pz      :     0.992053  p :     2.963510
      px      :     0.953905
      py      :     1.017551
      dz2     :     0.017519  d :     0.139313
      dxz     :     0.034029
      dyz     :     0.020103
      dx2y2   :     0.030989
      dxy     :     0.036672

  5 C s       :     2.890127  s :     2.890127
      pz      :     1.013979  p :     3.119701
      px      :     1.062678
      py      :     1.043044
      dz2     :     0.008122  d :     0.081679
      dxz     :     0.015481
      dyz     :     0.013424
      dx2y2   :     0.023304
      dxy     :     0.021347

  6 N s       :     3.043100  s :     3.043100
      pz      :     1.617081  p :     3.901925
      px      :     1.141924
      py      :     1.142920
      dz2     :     0.005177  d :     0.096463
      dxz     :     0.011628
      dyz     :     0.010794
      dx2y2   :     0.034152
      dxy     :     0.034712

  7 C s       :     2.851018  s :     2.851018
      pz      :     0.988969  p :     2.964368
      px      :     0.953756
      py      :     1.021643
      dz2     :     0.016890  d :     0.139278
      dxz     :     0.033425
      dyz     :     0.019895
      dx2y2   :     0.031757
      dxy     :     0.037311

  8 C s       :     2.847179  s :     2.847179
      pz      :     1.049909  p :     3.013630
      px      :     1.048044
      py      :     0.915677
      dz2     :     0.022997  d :     0.135941
      dxz     :     0.013831
      dyz     :     0.044176
      dx2y2   :     0.033197
      dxy     :     0.021741

  9 C s       :     2.893256  s :     2.893256
      pz      :     1.014630  p :     3.090128
      px      :     1.013401
      py      :     1.062096
      dz2     :     0.012207  d :     0.083781
      dxz     :     0.009387
      dyz     :     0.024616
      dx2y2   :     0.017071
      dxy     :     0.020500

 10 C s       :     2.891274  s :     2.891274
      pz      :     1.034212  p :     3.118391
      px      :     1.026672
      py      :     1.057507
      dz2     :     0.011006  d :     0.080361
      dxz     :     0.009214
      dyz     :     0.023534
      dx2y2   :     0.016453
      dxy     :     0.020154

 11 C s       :     2.847874  s :     2.847874
      pz      :     1.030373  p :     2.904039
      px      :     1.002204
      py      :     0.871462
      dz2     :     0.026441  d :     0.168940
      dxz     :     0.013288
      dyz     :     0.045509
      dx2y2   :     0.042085
      dxy     :     0.041615

 12 C s       :     2.888544  s :     2.888544
      pz      :     1.048732  p :     3.154554
      px      :     1.048162
      py      :     1.057660
      dz2     :     0.011355  d :     0.080855
      dxz     :     0.009738
      dyz     :     0.023260
      dx2y2   :     0.016547
      dxy     :     0.019955

 13 C s       :     2.892378  s :     2.892378
      pz      :     1.017228  p :     3.091088
      px      :     1.016864
      py      :     1.056996
      dz2     :     0.012195  d :     0.084020
      dxz     :     0.009436
      dyz     :     0.024529
      dx2y2   :     0.017339
      dxy     :     0.020521

 14 C s       :     2.889133  s :     2.889133
      pz      :     1.014889  p :     3.121963
      px      :     1.051902
      py      :     1.055172
      dz2     :     0.008199  d :     0.081419
      dxz     :     0.018168
      dyz     :     0.009590
      dx2y2   :     0.023550
      dxy     :     0.021912

 15 C s       :     2.888362  s :     2.888362
      pz      :     0.996733  p :     3.082892
      px      :     1.053242
      py      :     1.032917
      dz2     :     0.008023  d :     0.084765
      dxz     :     0.015452
      dyz     :     0.013219
      dx2y2   :     0.024061
      dxy     :     0.024010

 16 C s       :     2.861412  s :     2.861412
      pz      :     1.031268  p :     3.086281
      px      :     1.019009
      py      :     1.036004
      dz2     :     0.013335  d :     0.099344
      dxz     :     0.016164
      dyz     :     0.015307
      dx2y2   :     0.026419
      dxy     :     0.028120

 17 C s       :     2.891354  s :     2.891354
      pz      :     0.981779  p :     3.062715
      px      :     1.041596
      py      :     1.039340
      dz2     :     0.008675  d :     0.083834
      dxz     :     0.018146
      dyz     :     0.009859
      dx2y2   :     0.024213
      dxy     :     0.022941

 18 C s       :     2.890050  s :     2.890050
      pz      :     1.013300  p :     3.119577
      px      :     1.063104
      py      :     1.043173
      dz2     :     0.007743  d :     0.081677
      dxz     :     0.014919
      dyz     :     0.013243
      dx2y2   :     0.023819
      dxy     :     0.021953

 19 C s       :     2.855069  s :     2.855069
      pz      :     0.942629  p :     2.940705
      px      :     1.032583
      py      :     0.965493
      dz2     :     0.019501  d :     0.145952
      dxz     :     0.025427
      dyz     :     0.026120
      dx2y2   :     0.034241
      dxy     :     0.040663

 20 N s       :     3.207925  s :     3.207925
      pz      :     1.265405  p :     3.820048
      px      :     1.393999
      py      :     1.160644
      dz2     :     0.012447  d :     0.086300
      dxz     :     0.011305
      dyz     :     0.017405
      dx2y2   :     0.023533
      dxy     :     0.021611

 21 C s       :     2.893904  s :     2.893904
      pz      :     0.960011  p :     2.961273
      px      :     1.053943
      py      :     0.947319
      dz2     :     0.019795  d :     0.161177
      dxz     :     0.031240
      dyz     :     0.024879
      dx2y2   :     0.048312
      dxy     :     0.036950

 22 C s       :     2.870099  s :     2.870099
      pz      :     1.037940  p :     3.089542
      px      :     1.024667
      py      :     1.026936
      dz2     :     0.011724  d :     0.102929
      dxz     :     0.022610
      dyz     :     0.017660
      dx2y2   :     0.027333
      dxy     :     0.023603

 23 C s       :     2.911037  s :     2.911037
      pz      :     0.975100  p :     3.015831
      px      :     0.992979
      py      :     1.047752
      dz2     :     0.016272  d :     0.115737
      dxz     :     0.024194
      dyz     :     0.017956
      dx2y2   :     0.029462
      dxy     :     0.027852

 24 C s       :     2.891588  s :     2.891588
      pz      :     1.034553  p :     3.125458
      px      :     1.042431
      py      :     1.048473
      dz2     :     0.008793  d :     0.081448
      dxz     :     0.016550
      dyz     :     0.011231
      dx2y2   :     0.022103
      dxy     :     0.022772

 25 C s       :     2.876524  s :     2.876524
      pz      :     0.972114  p :     3.013342
      px      :     1.020731
      py      :     1.020497
      dz2     :     0.006861  d :     0.091843
      dxz     :     0.009893
      dyz     :     0.008738
      dx2y2   :     0.032493
      dxy     :     0.033859

 26 C s       :     2.867119  s :     2.867119
      pz      :     1.032863  p :     3.070023
      px      :     1.023818
      py      :     1.013343
      dz2     :     0.017625  d :     0.102877
      dxz     :     0.028926
      dyz     :     0.016598
      dx2y2   :     0.020359
      dxy     :     0.019369

 27 C s       :     2.866694  s :     2.866694
      pz      :     1.034769  p :     3.069551
      px      :     1.011162
      py      :     1.023620
      dz2     :     0.018475  d :     0.102888
      dxz     :     0.013933
      dyz     :     0.033242
      dx2y2   :     0.019041
      dxy     :     0.018197

 28 C s       :     2.908605  s :     2.908605
      pz      :     0.964976  p :     3.036815
      px      :     0.996847
      py      :     1.074992
      dz2     :     0.024209  d :     0.113266
      dxz     :     0.015963
      dyz     :     0.031266
      dx2y2   :     0.020209
      dxy     :     0.021618

 29 C s       :     2.892107  s :     2.892107
      pz      :     1.040335  p :     3.107115
      px      :     1.016064
      py      :     1.050717
      dz2     :     0.015488  d :     0.083406
      dxz     :     0.010803
      dyz     :     0.023277
      dx2y2   :     0.017281
      dxy     :     0.016556

 30 C s       :     2.904204  s :     2.904204
      pz      :     1.073894  p :     3.048863
      px      :     1.038019
      py      :     0.936950
      dz2     :     0.024384  d :     0.116790
      dxz     :     0.014389
      dyz     :     0.030581
      dx2y2   :     0.025857
      dxy     :     0.021579

 31 C s       :     2.892041  s :     2.892041
      pz      :     1.044985  p :     3.107072
      px      :     1.017554
      py      :     1.044532
      dz2     :     0.014168  d :     0.083417
      dxz     :     0.009151
      dyz     :     0.023769
      dx2y2   :     0.018178
      dxy     :     0.018150

 32 C s       :     2.908835  s :     2.908835
      pz      :     0.988831  p :     3.036269
      px      :     1.005521
      py      :     1.041917
      dz2     :     0.023127  d :     0.113131
      dxz     :     0.015372
      dyz     :     0.032643
      dx2y2   :     0.020232
      dxy     :     0.021756

 33 C s       :     2.908998  s :     2.908998
      pz      :     0.996316  p :     3.037011
      px      :     1.003549
      py      :     1.037146
      dz2     :     0.021675  d :     0.113206
      dxz     :     0.030545
      dyz     :     0.016288
      dx2y2   :     0.022796
      dxy     :     0.021901

 34 C s       :     2.892151  s :     2.892151
      pz      :     1.041862  p :     3.107735
      px      :     1.038733
      py      :     1.027140
      dz2     :     0.012940  d :     0.083426
      dxz     :     0.022354
      dyz     :     0.009835
      dx2y2   :     0.018747
      dxy     :     0.019549

 35 C s       :     2.904255  s :     2.904255
      pz      :     1.066886  p :     3.049411
      px      :     0.962222
      py      :     1.020303
      dz2     :     0.023071  d :     0.116771
      dxz     :     0.027756
      dyz     :     0.015848
      dx2y2   :     0.024609
      dxy     :     0.025487

 36 C s       :     2.892152  s :     2.892152
      pz      :     1.036171  p :     3.107716
      px      :     1.053667
      py      :     1.017878
      dz2     :     0.014679  d :     0.083421
      dxz     :     0.019881
      dyz     :     0.013634
      dx2y2   :     0.018439
      dxy     :     0.016788

 37 C s       :     2.908785  s :     2.908785
      pz      :     0.966028  p :     3.037550
      px      :     1.085603
      py      :     0.985920
      dz2     :     0.022769  d :     0.113319
      dxz     :     0.027891
      dyz     :     0.018275
      dx2y2   :     0.022138
      dxy     :     0.022247

 38 Cls       :     5.795896  s :     5.795896
      pz      :     3.681427  p :    11.105830
      px      :     3.559351
      py      :     3.865051
      dz2     :     0.004140  d :     0.033826
      dxz     :     0.014203
      dyz     :     0.003494
      dx2y2   :     0.005439
      dxy     :     0.006551

 39 Cls       :     5.796966  s :     5.796966
      pz      :     3.568093  p :    11.110674
      px      :     3.804573
      py      :     3.738007
      dz2     :     0.005968  d :     0.033855
      dxz     :     0.007838
      dyz     :     0.011987
      dx2y2   :     0.002393
      dxy     :     0.005669

 40 Cls       :     5.796551  s :     5.796551
      pz      :     3.465721  p :    11.108586
      px      :     3.768953
      py      :     3.873912
      dz2     :     0.010089  d :     0.033927
      dxz     :     0.012023
      dyz     :     0.006646
      dx2y2   :     0.002263
      dxy     :     0.002906

 41 Cls       :     5.804966  s :     5.804966
      pz      :     3.648841  p :    11.115739
      px      :     3.937586
      py      :     3.529311
      dz2     :     0.004277  d :     0.031543
      dxz     :     0.001451
      dyz     :     0.016063
      dx2y2   :     0.007559
      dxy     :     0.002193

 42 Cls       :     5.797025  s :     5.797025
      pz      :     3.615008  p :    11.107700
      px      :     3.599088
      py      :     3.893603
      dz2     :     0.004885  d :     0.033998
      dxz     :     0.016033
      dyz     :     0.003443
      dx2y2   :     0.004670
      dxy     :     0.004967

 43 Cls       :     5.796670  s :     5.796670
      pz      :     3.484947  p :    11.108641
      px      :     3.935352
      py      :     3.688342
      dz2     :     0.009468  d :     0.033951
      dxz     :     0.002903
      dyz     :     0.015867
      dx2y2   :     0.004139
      dxy     :     0.001575

 44 Cls       :     5.794948  s :     5.794948
      pz      :     3.929155  p :    11.114924
      px      :     3.927678
      py      :     3.258091
      dz2     :     0.005604  d :     0.033412
      dxz     :     0.000139
      dyz     :     0.005363
      dx2y2   :     0.016361
      dxy     :     0.005947

 45 Cls       :     5.795084  s :     5.795084
      pz      :     3.921493  p :    11.115655
      px      :     3.385242
      py      :     3.808920
      dz2     :     0.005386  d :     0.033380
      dxz     :     0.005148
      dyz     :     0.001022
      dx2y2   :     0.009621
      dxy     :     0.012203

 46 C s       :     2.854920  s :     2.854920
      pz      :     0.942857  p :     2.941720
      px      :     1.031951
      py      :     0.966912
      dz2     :     0.019123  d :     0.145897
      dxz     :     0.024811
      dyz     :     0.026193
      dx2y2   :     0.034669
      dxy     :     0.041100

 47 N s       :     3.207848  s :     3.207848
      pz      :     1.265911  p :     3.820580
      px      :     1.391311
      py      :     1.163358
      dz2     :     0.012183  d :     0.086340
      dxz     :     0.011227
      dyz     :     0.017410
      dx2y2   :     0.023911
      dxy     :     0.021609

 48 C s       :     2.893803  s :     2.893803
      pz      :     0.961473  p :     2.961950
      px      :     1.054222
      py      :     0.946256
      dz2     :     0.019421  d :     0.161130
      dxz     :     0.031015
      dyz     :     0.024677
      dx2y2   :     0.048769
      dxy     :     0.037249

 49 C s       :     2.870351  s :     2.870351
      pz      :     1.037074  p :     3.089183
      px      :     1.025194
      py      :     1.026915
      dz2     :     0.011507  d :     0.103049
      dxz     :     0.022572
      dyz     :     0.017530
      dx2y2   :     0.027618
      dxy     :     0.023821

 50 C s       :     2.911041  s :     2.911041
      pz      :     0.974708  p :     3.016636
      px      :     0.993731
      py      :     1.048196
      dz2     :     0.016022  d :     0.115698
      dxz     :     0.023864
      dyz     :     0.018069
      dx2y2   :     0.029596
      dxy     :     0.028147

 51 C s       :     2.891604  s :     2.891604
      pz      :     1.033671  p :     3.124994
      px      :     1.042312
      py      :     1.049010
      dz2     :     0.008715  d :     0.081491
      dxz     :     0.016415
      dyz     :     0.011243
      dx2y2   :     0.022265
      dxy     :     0.022852

 52 C s       :     2.878096  s :     2.878096
      pz      :     0.969967  p :     3.011419
      px      :     1.018185
      py      :     1.023267
      dz2     :     0.006760  d :     0.091705
      dxz     :     0.009923
      dyz     :     0.008885
      dx2y2   :     0.032193
      dxy     :     0.033943

 53 C s       :     2.866916  s :     2.866916
      pz      :     1.032396  p :     3.070101
      px      :     1.024809
      py      :     1.012896
      dz2     :     0.017926  d :     0.102854
      dxz     :     0.029434
      dyz     :     0.016505
      dx2y2   :     0.019958
      dxy     :     0.019031

 54 C s       :     2.872132  s :     2.872132
      pz      :     1.033215  p :     3.073026
      px      :     1.012340
      py      :     1.027472
      dz2     :     0.020041  d :     0.105208
      dxz     :     0.014837
      dyz     :     0.031635
      dx2y2   :     0.021077
      dxy     :     0.017617

 55 C s       :     3.006728  s :     3.006728
      pz      :     0.907240  p :     2.864746
      px      :     0.930744
      py      :     1.026761
      dz2     :     0.010695  d :     0.070004
      dxz     :     0.005877
      dyz     :     0.020843
      dx2y2   :     0.015715
      dxy     :     0.016873

 56 C s       :     2.894841  s :     2.894841
      pz      :     1.034563  p :     3.121569
      px      :     1.018577
      py      :     1.068429
      dz2     :     0.014932  d :     0.085080
      dxz     :     0.010543
      dyz     :     0.025955
      dx2y2   :     0.016406
      dxy     :     0.017244

 57 C s       :     2.906320  s :     2.906320
      pz      :     1.070720  p :     3.045442
      px      :     1.039223
      py      :     0.935499
      dz2     :     0.024458  d :     0.117570
      dxz     :     0.014470
      dyz     :     0.030769
      dx2y2   :     0.026090
      dxy     :     0.021782

 58 C s       :     2.892352  s :     2.892352
      pz      :     1.045341  p :     3.109544
      px      :     1.019931
      py      :     1.044272
      dz2     :     0.013907  d :     0.083146
      dxz     :     0.009050
      dyz     :     0.023611
      dx2y2   :     0.018237
      dxy     :     0.018340

 59 C s       :     2.911685  s :     2.911685
      pz      :     0.988559  p :     3.035328
      px      :     1.005993
      py      :     1.040776
      dz2     :     0.022989  d :     0.113690
      dxz     :     0.015678
      dyz     :     0.032724
      dx2y2   :     0.020437
      dxy     :     0.021861

 60 C s       :     2.909492  s :     2.909492
      pz      :     0.997274  p :     3.040332
      px      :     1.004448
      py      :     1.038611
      dz2     :     0.022071  d :     0.113246
      dxz     :     0.030898
      dyz     :     0.016226
      dx2y2   :     0.022517
      dxy     :     0.021533

 61 C s       :     2.892212  s :     2.892212
      pz      :     1.043252  p :     3.108256
      px      :     1.038641
      py      :     1.026363
      dz2     :     0.013237  d :     0.083451
      dxz     :     0.022519
      dyz     :     0.009842
      dx2y2   :     0.018518
      dxy     :     0.019335

 62 C s       :     2.904276  s :     2.904276
      pz      :     1.068510  p :     3.050106
      px      :     0.962305
      py      :     1.019291
      dz2     :     0.023416  d :     0.116802
      dxz     :     0.028082
      dyz     :     0.015945
      dx2y2   :     0.024237
      dxy     :     0.025121

 63 C s       :     2.892341  s :     2.892341
      pz      :     1.037140  p :     3.108272
      px      :     1.053748
      py      :     1.017384
      dz2     :     0.014993  d :     0.083453
      dxz     :     0.020116
      dyz     :     0.013632
      dx2y2   :     0.018207
      dxy     :     0.016506

 64 C s       :     2.909075  s :     2.909075
      pz      :     0.964922  p :     3.036574
      px      :     1.085212
      py      :     0.986440
      dz2     :     0.023215  d :     0.113272
      dxz     :     0.028148
      dyz     :     0.018255
      dx2y2   :     0.021797
      dxy     :     0.021858

 65 Cls       :     5.795831  s :     5.795831
      pz      :     3.681548  p :    11.106784
      px      :     3.564808
      py      :     3.860428
      dz2     :     0.004175  d :     0.033807
      dxz     :     0.014007
      dyz     :     0.003646
      dx2y2   :     0.005259
      dxy     :     0.006720

 66 Cls       :     5.797303  s :     5.797303
      pz      :     3.580397  p :    11.113845
      px      :     3.801629
      py      :     3.731818
      dz2     :     0.005714  d :     0.033872
      dxz     :     0.007803
      dyz     :     0.011960
      dx2y2   :     0.002492
      dxy     :     0.005903

 67 Cls       :     5.999065  s :     5.999065
      pz      :     3.997292  p :    10.999837
      px      :     3.007471
      py      :     3.995074
      dz2     :     0.000238  d :     0.000963
      dxz     :     0.000008
      dyz     :     0.000000
      dx2y2   :     0.000703
      dxy     :     0.000014

 68 Cls       :     5.805030  s :     5.805030
      pz      :     3.660635  p :    11.119235
      px      :     3.939195
      py      :     3.519405
      dz2     :     0.004096  d :     0.031449
      dxz     :     0.001365
      dyz     :     0.015861
      dx2y2   :     0.007898
      dxy     :     0.002229

 69 Cls       :     5.796956  s :     5.796956
      pz      :     3.608297  p :    11.108168
      px      :     3.602168
      py      :     3.897704
      dz2     :     0.005010  d :     0.034066
      dxz     :     0.016209
      dyz     :     0.003388
      dx2y2   :     0.004646
      dxy     :     0.004812

 70 Cls       :     5.796798  s :     5.796798
      pz      :     3.474359  p :    11.106396
      px      :     3.935082
      py      :     3.696955
      dz2     :     0.009782  d :     0.033956
      dxz     :     0.002978
      dyz     :     0.015734
      dx2y2   :     0.003931
      dxy     :     0.001530

 71 Cls       :     5.795192  s :     5.795192
      pz      :     3.926574  p :    11.117500
      px      :     3.928356
      py      :     3.262570
      dz2     :     0.005510  d :     0.033444
      dxz     :     0.000156
      dyz     :     0.005601
      dx2y2   :     0.016234
      dxy     :     0.005942

 72 Cls       :     5.795109  s :     5.795109
      pz      :     3.921501  p :    11.115315
      px      :     3.385533
      py      :     3.808282
      dz2     :     0.005388  d :     0.033399
      dxz     :     0.005127
      dyz     :     0.001025
      dx2y2   :     0.009624
      dxy     :     0.012235

 73 O s       :     3.446626  s :     3.446626
      pz      :     1.647350  p :     4.647061
      px      :     1.690667
      py      :     1.309045
      dz2     :     0.010818  d :     0.067561
      dxz     :     0.007951
      dyz     :     0.016289
      dx2y2   :     0.017884
      dxy     :     0.014619

 74 C s       :     2.906786  s :     2.906786
      pz      :     0.991276  p :     3.024132
      px      :     1.024488
      py      :     1.008368
      dz2     :     0.034429  d :     0.115316
      dxz     :     0.018430
      dyz     :     0.018703
      dx2y2   :     0.029317
      dxy     :     0.014436

 75 H s       :     0.863713  s :     0.863713
      pz      :     0.012790  p :     0.042957
      px      :     0.007091
      py      :     0.023076

 76 H s       :     0.883633  s :     0.883633
      pz      :     0.013428  p :     0.040413
      px      :     0.017166
      py      :     0.009820

 77 H s       :     0.873865  s :     0.873865
      pz      :     0.013135  p :     0.041455
      px      :     0.006400
      py      :     0.021920

 78 H s       :     0.873017  s :     0.873017
      pz      :     0.013859  p :     0.041358
      px      :     0.017987
      py      :     0.009513

 79 H s       :     0.873539  s :     0.873539
      pz      :     0.016176  p :     0.040563
      px      :     0.013362
      py      :     0.011025

 80 H s       :     0.872773  s :     0.872773
      pz      :     0.016364  p :     0.040949
      px      :     0.013448
      py      :     0.011137

 81 H s       :     0.878298  s :     0.878298
      pz      :     0.016712  p :     0.041773
      px      :     0.014330
      py      :     0.010731

 82 H s       :     0.874482  s :     0.874482
      pz      :     0.016420  p :     0.040571
      px      :     0.013278
      py      :     0.010873

 83 H s       :     0.874044  s :     0.874044
      pz      :     0.012606  p :     0.041500
      px      :     0.006419
      py      :     0.022476

 84 H s       :     0.883594  s :     0.883594
      pz      :     0.013067  p :     0.040406
      px      :     0.017182
      py      :     0.010158

 85 H s       :     0.863933  s :     0.863933
      pz      :     0.012207  p :     0.042964
      px      :     0.007103
      py      :     0.023654

 86 H s       :     0.872867  s :     0.872867
      pz      :     0.013605  p :     0.041375
      px      :     0.017958
      py      :     0.009812

 87 H s       :     0.865462  s :     0.865462
      pz      :     0.014636  p :     0.042715
      px      :     0.006202
      py      :     0.021877

 88 H s       :     0.855695  s :     0.855695
      pz      :     0.016656  p :     0.041938
      px      :     0.011643
      py      :     0.013640

 89 H s       :     0.855614  s :     0.855614
      pz      :     0.020409  p :     0.041944
      px      :     0.013202
      py      :     0.008333

 90 H s       :     0.855896  s :     0.855896
      pz      :     0.020000  p :     0.041934
      px      :     0.005516
      py      :     0.016418

 91 H s       :     0.855720  s :     0.855720
      pz      :     0.015140  p :     0.041950
      px      :     0.018975
      py      :     0.007835

 92 H s       :     0.865546  s :     0.865546
      pz      :     0.014337  p :     0.042700
      px      :     0.006206
      py      :     0.022157

 93 H s       :     0.859910  s :     0.859910
      pz      :     0.016175  p :     0.041487
      px      :     0.011815
      py      :     0.013498

 94 H s       :     0.856157  s :     0.856157
      pz      :     0.020476  p :     0.041852
      px      :     0.013231
      py      :     0.008144

 95 H s       :     0.855674  s :     0.855674
      pz      :     0.020278  p :     0.041960
      px      :     0.005541
      py      :     0.016141

 96 H s       :     0.855584  s :     0.855584
      pz      :     0.015340  p :     0.041971
      px      :     0.018884
      py      :     0.007747

 97 H s       :     0.880620  s :     0.880620
      pz      :     0.006557  p :     0.037955
      px      :     0.006452
      py      :     0.024946

 98 H s       :     0.896995  s :     0.896995
      pz      :     0.005655  p :     0.038555
      px      :     0.026604
      py      :     0.006296

 99 H s       :     0.896972  s :     0.896972
      pz      :     0.025083  p :     0.038546
      px      :     0.007273
      py      :     0.006189


SPIN
  0 C s       :    -0.000885  s :    -0.000885
      pz      :    -0.013026  p :    -0.022730
      px      :    -0.002592
      py      :    -0.007112
      dz2     :     0.000110  d :     0.000616
      dxz     :     0.000199
      dyz     :     0.000082
      dx2y2   :     0.000096
      dxy     :     0.000129

  1 C s       :     0.001219  s :     0.001219
      pz      :     0.011210  p :     0.020084
      px      :     0.003270
      py      :     0.005604
      dz2     :    -0.000206  d :    -0.002054
      dxz     :    -0.000800
      dyz     :    -0.000279
      dx2y2   :    -0.000492
      dxy     :    -0.000276

  2 C s       :    -0.000881  s :    -0.000881
      pz      :    -0.013447  p :    -0.022772
      px      :    -0.002913
      py      :    -0.006413
      dz2     :     0.000098  d :     0.000608
      dxz     :     0.000148
      dyz     :     0.000130
      dx2y2   :     0.000159
      dxy     :     0.000073

  3 C s       :     0.000597  s :     0.000597
      pz      :     0.007038  p :     0.011808
      px      :     0.001465
      py      :     0.003305
      dz2     :    -0.000160  d :    -0.000854
      dxz     :    -0.000314
      dyz     :    -0.000062
      dx2y2   :    -0.000103
      dxy     :    -0.000216

  4 C s       :    -0.000844  s :    -0.000844
      pz      :    -0.013232  p :    -0.021253
      px      :    -0.002167
      py      :    -0.005854
      dz2     :     0.000173  d :     0.000179
      dxz     :    -0.000122
      dyz     :    -0.000007
      dx2y2   :     0.000063
      dxy     :     0.000072

  5 C s       :     0.000628  s :     0.000628
      pz      :     0.007574  p :     0.012561
      px      :     0.001622
      py      :     0.003366
      dz2     :    -0.000133  d :    -0.000853
      dxz     :    -0.000207
      dyz     :    -0.000163
      dx2y2   :    -0.000302
      dxy     :    -0.000048

  6 N s       :    -0.000220  s :    -0.000220
      pz      :    -0.009580  p :    -0.009411
      px      :     0.000242
      py      :    -0.000072
      dz2     :     0.000014  d :    -0.000722
      dxz     :    -0.000278
      dyz     :    -0.000064
      dx2y2   :    -0.000336
      dxy     :    -0.000059

  7 C s       :    -0.000848  s :    -0.000848
      pz      :    -0.013849  p :    -0.021362
      px      :    -0.002124
      py      :    -0.005389
      dz2     :     0.000169  d :     0.000187
      dxz     :    -0.000120
      dyz     :     0.000004
      dx2y2   :     0.000063
      dxy     :     0.000071

  8 C s       :    -0.000008  s :    -0.000008
      pz      :     0.000847  p :     0.001698
      px      :     0.000897
      py      :    -0.000046
      dz2     :    -0.000021  d :    -0.000393
      dxz     :    -0.000008
      dyz     :    -0.000348
      dx2y2   :    -0.000023
      dxy     :     0.000007

  9 C s       :    -0.000087  s :    -0.000087
      pz      :    -0.000543  p :    -0.002090
      px      :    -0.001490
      py      :    -0.000057
      dz2     :     0.000015  d :     0.000065
      dxz     :     0.000005
      dyz     :     0.000015
      dx2y2   :     0.000009
      dxy     :     0.000020

 10 C s       :     0.000066  s :     0.000066
      pz      :     0.000497  p :     0.001300
      px      :     0.000737
      py      :     0.000066
      dz2     :    -0.000015  d :    -0.000089
      dxz     :    -0.000004
      dyz     :    -0.000014
      dx2y2   :    -0.000009
      dxy     :    -0.000048

 11 C s       :    -0.000081  s :    -0.000081
      pz      :    -0.000842  p :    -0.001903
      px      :    -0.001033
      py      :    -0.000028
      dz2     :     0.000020  d :     0.000038
      dxz     :     0.000008
      dyz     :     0.000001
      dx2y2   :     0.000007
      dxy     :     0.000001

 12 C s       :     0.000065  s :     0.000065
      pz      :     0.000466  p :     0.001224
      px      :     0.000689
      py      :     0.000070
      dz2     :    -0.000016  d :    -0.000099
      dxz     :    -0.000004
      dyz     :    -0.000016
      dx2y2   :    -0.000008
      dxy     :    -0.000054

 13 C s       :    -0.000099  s :    -0.000099
      pz      :    -0.000647  p :    -0.002437
      px      :    -0.001732
      py      :    -0.000059
      dz2     :     0.000015  d :     0.000064
      dxz     :     0.000006
      dyz     :     0.000014
      dx2y2   :     0.000009
      dxy     :     0.000019

 14 C s       :     0.000605  s :     0.000605
      pz      :     0.007418  p :     0.011934
      px      :     0.001452
      py      :     0.003064
      dz2     :    -0.000165  d :    -0.000867
      dxz     :    -0.000337
      dyz     :    -0.000060
      dx2y2   :    -0.000098
      dxy     :    -0.000206

 15 C s       :    -0.000897  s :    -0.000897
      pz      :    -0.014340  p :    -0.023145
      px      :    -0.002896
      py      :    -0.005909
      dz2     :     0.000095  d :     0.000618
      dxz     :     0.000150
      dyz     :     0.000143
      dx2y2   :     0.000155
      dxy     :     0.000074

 16 C s       :     0.001242  s :     0.001242
      pz      :     0.011847  p :     0.020439
      px      :     0.003299
      py      :     0.005293
      dz2     :    -0.000204  d :    -0.002089
      dxz     :    -0.000816
      dyz     :    -0.000300
      dx2y2   :    -0.000497
      dxy     :    -0.000272

 17 C s       :    -0.000889  s :    -0.000889
      pz      :    -0.013767  p :    -0.022848
      px      :    -0.002529
      py      :    -0.006551
      dz2     :     0.000115  d :     0.000626
      dxz     :     0.000211
      dyz     :     0.000080
      dx2y2   :     0.000094
      dxy     :     0.000125

 18 C s       :     0.000633  s :     0.000633
      pz      :     0.007963  p :     0.012706
      px      :     0.001610
      py      :     0.003133
      dz2     :    -0.000124  d :    -0.000859
      dxz     :    -0.000214
      dyz     :    -0.000186
      dx2y2   :    -0.000288
      dxy     :    -0.000047

 19 C s       :    -0.003336  s :    -0.003336
      pz      :    -0.051357  p :    -0.082540
      px      :    -0.008920
      py      :    -0.022263
      dz2     :     0.000858  d :     0.002289
      dxz     :     0.000397
      dyz     :     0.000343
      dx2y2   :     0.000382
      dxy     :     0.000310

 20 N s       :     0.001391  s :     0.001391
      pz      :     0.026152  p :     0.043017
      px      :     0.002613
      py      :     0.014252
      dz2     :    -0.000742  d :    -0.003950
      dxz     :    -0.000798
      dyz     :    -0.000517
      dx2y2   :    -0.001670
      dxy     :    -0.000222

 21 C s       :    -0.007930  s :    -0.007930
      pz      :    -0.039190  p :    -0.088150
      px      :    -0.022737
      py      :    -0.026224
      dz2     :     0.000685  d :     0.002949
      dxz     :     0.000927
      dyz     :     0.000223
      dx2y2   :     0.000749
      dxy     :     0.000364

 22 C s       :     0.008295  s :     0.008295
      pz      :     0.055778  p :     0.094227
      px      :     0.015987
      py      :     0.022462
      dz2     :    -0.000753  d :    -0.016891
      dxz     :    -0.009491
      dyz     :    -0.004909
      dx2y2   :    -0.000919
      dxy     :    -0.000819

 23 C s       :    -0.007451  s :    -0.007451
      pz      :    -0.038837  p :    -0.088682
      px      :    -0.009944
      py      :    -0.039901
      dz2     :     0.000751  d :     0.002946
      dxz     :     0.000548
      dyz     :     0.000551
      dx2y2   :     0.000797
      dxy     :     0.000299

 24 C s       :     0.002288  s :     0.002288
      pz      :     0.031172  p :     0.054372
      px      :     0.008174
      py      :     0.015026
      dz2     :    -0.000506  d :    -0.003419
      dxz     :    -0.000961
      dyz     :    -0.000216
      dx2y2   :    -0.000915
      dxy     :    -0.000820

 25 C s       :    -0.025142  s :    -0.025142
      pz      :    -0.593827  p :    -0.636593
      px      :    -0.022562
      py      :    -0.020203
      dz2     :     0.001909  d :     0.006422
      dxz     :     0.000825
      dyz     :     0.000514
      dx2y2   :     0.001412
      dxy     :     0.001761

 26 C s       :     0.007851  s :     0.007851
      pz      :     0.032328  p :     0.081721
      px      :     0.014541
      py      :     0.034852
      dz2     :    -0.001601  d :    -0.016238
      dxz     :    -0.010530
      dyz     :    -0.002519
      dx2y2   :    -0.000663
      dxy     :    -0.000924

 27 C s       :     0.007862  s :     0.007862
      pz      :     0.028976  p :     0.082397
      px      :     0.039757
      py      :     0.013664
      dz2     :    -0.001214  d :    -0.016184
      dxz     :    -0.000324
      dyz     :    -0.013098
      dx2y2   :    -0.000988
      dxy     :    -0.000559

 28 C s       :    -0.007362  s :    -0.007362
      pz      :    -0.017478  p :    -0.083944
      px      :    -0.060381
      py      :    -0.006086
      dz2     :     0.000546  d :     0.002515
      dxz     :     0.000281
      dyz     :     0.000475
      dx2y2   :     0.000195
      dxy     :     0.001018

 29 C s       :     0.002185  s :     0.002185
      pz      :     0.014882  p :     0.048101
      px      :     0.031486
      py      :     0.001733
      dz2     :    -0.000653  d :    -0.003316
      dxz     :    -0.000264
      dyz     :    -0.000370
      dx2y2   :    -0.000432
      dxy     :    -0.001596

 30 C s       :    -0.003389  s :    -0.003389
      pz      :    -0.026174  p :    -0.076201
      px      :    -0.048008
      py      :    -0.002019
      dz2     :     0.000768  d :     0.001963
      dxz     :     0.000381
      dyz     :     0.000194
      dx2y2   :     0.000338
      dxy     :     0.000283

 31 C s       :     0.002162  s :     0.002162
      pz      :     0.014738  p :     0.048064
      px      :     0.031337
      py      :     0.001990
      dz2     :    -0.000424  d :    -0.003328
      dxz     :    -0.000161
      dyz     :    -0.000492
      dx2y2   :    -0.000265
      dxy     :    -0.001986

 32 C s       :    -0.007406  s :    -0.007406
      pz      :    -0.016372  p :    -0.084028
      px      :    -0.062641
      py      :    -0.005015
      dz2     :     0.000684  d :     0.002492
      dxz     :     0.000334
      dyz     :     0.000426
      dx2y2   :     0.000172
      dxy     :     0.000876

 33 C s       :    -0.007428  s :    -0.007428
      pz      :    -0.019315  p :    -0.083332
      px      :    -0.006640
      py      :    -0.057377
      dz2     :     0.000737  d :     0.002473
      dxz     :     0.000475
      dyz     :     0.000267
      dx2y2   :     0.000625
      dxy     :     0.000368

 34 C s       :     0.002141  s :     0.002141
      pz      :     0.016871  p :     0.047640
      px      :     0.005097
      py      :     0.025672
      dz2     :    -0.000392  d :    -0.003303
      dxz     :    -0.000556
      dyz     :    -0.000188
      dx2y2   :    -0.000639
      dxy     :    -0.001528

 35 C s       :    -0.003357  s :    -0.003357
      pz      :    -0.029771  p :    -0.075442
      px      :    -0.006095
      py      :    -0.039576
      dz2     :     0.000798  d :     0.001947
      dxz     :     0.000215
      dyz     :     0.000310
      dx2y2   :     0.000276
      dxy     :     0.000348

 36 C s       :     0.002162  s :     0.002162
      pz      :     0.017117  p :     0.047699
      px      :     0.004150
      py      :     0.026432
      dz2     :    -0.000741  d :    -0.003299
      dxz     :    -0.000451
      dyz     :    -0.000176
      dx2y2   :    -0.001444
      dxy     :    -0.000487

 37 C s       :    -0.007451  s :    -0.007451
      pz      :    -0.021048  p :    -0.083452
      px      :    -0.016953
      py      :    -0.045451
      dz2     :     0.000517  d :     0.002494
      dxz     :     0.000527
      dyz     :     0.000280
      dx2y2   :     0.000438
      dxy     :     0.000731

 38 Cls       :    -0.000053  s :    -0.000053
      pz      :    -0.002498  p :    -0.003730
      px      :    -0.000131
      py      :    -0.001101
      dz2     :    -0.000311  d :    -0.000845
      dxz     :    -0.000088
      dyz     :    -0.000027
      dx2y2   :    -0.000050
      dxy     :    -0.000369

 39 Cls       :    -0.000054  s :    -0.000054
      pz      :    -0.000094  p :    -0.003089
      px      :    -0.003703
      py      :     0.000708
      dz2     :    -0.000196  d :    -0.000823
      dxz     :    -0.000155
      dyz     :    -0.000012
      dx2y2   :    -0.000116
      dxy     :    -0.000343

 40 Cls       :    -0.000078  s :    -0.000078
      pz      :     0.000731  p :    -0.003688
      px      :    -0.004056
      py      :    -0.000363
      dz2     :    -0.000243  d :    -0.000850
      dxz     :    -0.000257
      dyz     :     0.000008
      dx2y2   :    -0.000208
      dxy     :    -0.000151

 41 Cls       :    -0.000056  s :    -0.000056
      pz      :    -0.001640  p :    -0.005436
      px      :    -0.000356
      py      :    -0.003440
      dz2     :    -0.000318  d :    -0.000796
      dxz     :    -0.000009
      dyz     :    -0.000078
      dx2y2   :    -0.000337
      dxy     :    -0.000054

 42 Cls       :    -0.000052  s :    -0.000052
      pz      :    -0.000758  p :    -0.003056
      px      :     0.000401
      py      :    -0.002699
      dz2     :    -0.000203  d :    -0.000825
      dxz     :    -0.000042
      dyz     :    -0.000088
      dx2y2   :    -0.000031
      dxy     :    -0.000460

 43 Cls       :    -0.000081  s :    -0.000081
      pz      :     0.000413  p :    -0.003562
      px      :    -0.000309
      py      :    -0.003667
      dz2     :    -0.000275  d :    -0.000851
      dxz     :    -0.000020
      dyz     :    -0.000190
      dx2y2   :    -0.000366
      dxy     :    -0.000000

 44 Cls       :    -0.000150  s :    -0.000150
      pz      :    -0.002621  p :    -0.006363
      px      :    -0.006614
      py      :     0.002872
      dz2     :    -0.000022  d :    -0.000818
      dxz     :    -0.000001
      dyz     :    -0.000226
      dx2y2   :    -0.000077
      dxy     :    -0.000492

 45 Cls       :    -0.000148  s :    -0.000148
      pz      :    -0.003023  p :    -0.006227
      px      :     0.001655
      py      :    -0.004858
      dz2     :    -0.000031  d :    -0.000812
      dxz     :    -0.000244
      dyz     :    -0.000019
      dx2y2   :    -0.000248
      dxy     :    -0.000272

 46 C s       :    -0.003392  s :    -0.003392
      pz      :    -0.052984  p :    -0.083991
      px      :    -0.009278
      py      :    -0.021729
      dz2     :     0.000863  d :     0.002329
      dxz     :     0.000416
      dyz     :     0.000363
      dx2y2   :     0.000379
      dxy     :     0.000308

 47 N s       :     0.001437  s :     0.001437
      pz      :     0.026995  p :     0.043909
      px      :     0.002964
      py      :     0.013950
      dz2     :    -0.000709  d :    -0.004021
      dxz     :    -0.000821
      dyz     :    -0.000588
      dx2y2   :    -0.001684
      dxy     :    -0.000220

 48 C s       :    -0.007996  s :    -0.007996
      pz      :    -0.040268  p :    -0.088810
      px      :    -0.022991
      py      :    -0.025551
      dz2     :     0.000698  d :     0.002977
      dxz     :     0.000939
      dyz     :     0.000226
      dx2y2   :     0.000742
      dxy     :     0.000371

 49 C s       :     0.008056  s :     0.008056
      pz      :     0.056780  p :     0.094066
      px      :     0.015621
      py      :     0.021666
      dz2     :    -0.000717  d :    -0.017001
      dxz     :    -0.009697
      dyz     :    -0.004884
      dx2y2   :    -0.000886
      dxy     :    -0.000817

 50 C s       :    -0.007545  s :    -0.007545
      pz      :    -0.040488  p :    -0.090058
      px      :    -0.010230
      py      :    -0.039339
      dz2     :     0.000732  d :     0.002966
      dxz     :     0.000546
      dyz     :     0.000593
      dx2y2   :     0.000801
      dxy     :     0.000293

 51 C s       :     0.002320  s :     0.002320
      pz      :     0.032052  p :     0.055207
      px      :     0.008403
      py      :     0.014753
      dz2     :    -0.000533  d :    -0.003490
      dxz     :    -0.000985
      dyz     :    -0.000225
      dx2y2   :    -0.000922
      dxy     :    -0.000825

 52 C s       :    -0.022514  s :    -0.022514
      pz      :    -0.594418  p :    -0.631673
      px      :    -0.021316
      py      :    -0.015938
      dz2     :     0.001892  d :     0.005529
      dxz     :     0.000864
      dyz     :     0.000360
      dx2y2   :     0.001414
      dxy     :     0.000999

 53 C s       :     0.007794  s :     0.007794
      pz      :     0.032154  p :     0.083897
      px      :     0.014626
      py      :     0.037117
      dz2     :    -0.001668  d :    -0.016495
      dxz     :    -0.010711
      dyz     :    -0.002545
      dx2y2   :    -0.000637
      dxy     :    -0.000933

 54 C s       :     0.007763  s :     0.007763
      pz      :     0.024231  p :     0.050707
      px      :     0.013618
      py      :     0.012859
      dz2     :     0.003239  d :    -0.001549
      dxz     :     0.002951
      dyz     :    -0.011816
      dx2y2   :     0.003906
      dxy     :     0.000171

 55 C s       :     0.125961  s :     0.125961
      pz      :     0.437131  p :     0.721384
      px      :     0.188582
      py      :     0.095671
      dz2     :    -0.000327  d :     0.000874
      dxz     :     0.000078
      dyz     :    -0.000062
      dx2y2   :     0.000714
      dxy     :     0.000471

 56 C s       :     0.001148  s :     0.001148
      pz      :    -0.002631  p :     0.003678
      px      :    -0.003920
      py      :     0.010230
      dz2     :     0.000405  d :     0.013940
      dxz     :     0.000429
      dyz     :     0.008838
      dx2y2   :     0.000755
      dxy     :     0.003513

 57 C s       :     0.008910  s :     0.008910
      pz      :    -0.005062  p :    -0.030699
      px      :    -0.023395
      py      :    -0.002242
      dz2     :    -0.000002  d :     0.000487
      dxz     :     0.000034
      dyz     :    -0.000058
      dx2y2   :     0.000456
      dxy     :     0.000057

 58 C s       :     0.000627  s :     0.000627
      pz      :     0.000750  p :     0.002775
      px      :     0.001636
      py      :     0.000389
      dz2     :    -0.000207  d :    -0.002219
      dxz     :    -0.000066
      dyz     :    -0.000310
      dx2y2   :    -0.000077
      dxy     :    -0.001559

 59 C s       :     0.003951  s :     0.003951
      pz      :    -0.003987  p :    -0.044145
      px      :    -0.042108
      py      :     0.001950
      dz2     :     0.000286  d :     0.001908
      dxz     :     0.000461
      dyz     :     0.000815
      dx2y2   :    -0.000107
      dxy     :     0.000453

 60 C s       :    -0.007684  s :    -0.007684
      pz      :    -0.019675  p :    -0.087620
      px      :    -0.007157
      py      :    -0.060787
      dz2     :     0.000759  d :     0.002596
      dxz     :     0.000499
      dyz     :     0.000281
      dx2y2   :     0.000678
      dxy     :     0.000380

 61 C s       :     0.002279  s :     0.002279
      pz      :     0.017163  p :     0.050448
      px      :     0.005506
      py      :     0.027778
      dz2     :    -0.000409  d :    -0.003494
      dxz     :    -0.000565
      dyz     :    -0.000208
      dx2y2   :    -0.000687
      dxy     :    -0.001625

 62 C s       :    -0.003528  s :    -0.003528
      pz      :    -0.030121  p :    -0.079273
      px      :    -0.006628
      py      :    -0.042524
      dz2     :     0.000831  d :     0.002058
      dxz     :     0.000227
      dyz     :     0.000340
      dx2y2   :     0.000289
      dxy     :     0.000370

 63 C s       :     0.002260  s :     0.002260
      pz      :     0.017347  p :     0.050174
      px      :     0.004592
      py      :     0.028234
      dz2     :    -0.000771  d :    -0.003483
      dxz     :    -0.000469
      dyz     :    -0.000193
      dx2y2   :    -0.001533
      dxy     :    -0.000517

 64 C s       :    -0.007532  s :    -0.007532
      pz      :    -0.021059  p :    -0.087369
      px      :    -0.017622
      py      :    -0.048688
      dz2     :     0.000522  d :     0.002565
      dxz     :     0.000523
      dyz     :     0.000305
      dx2y2   :     0.000438
      dxy     :     0.000776

 65 Cls       :    -0.000055  s :    -0.000055
      pz      :    -0.002537  p :    -0.003752
      px      :    -0.000211
      py      :    -0.001004
      dz2     :    -0.000325  d :    -0.000874
      dxz     :    -0.000088
      dyz     :    -0.000027
      dx2y2   :    -0.000054
      dxy     :    -0.000381

 66 Cls       :     0.000335  s :     0.000335
      pz      :     0.011429  p :     0.013175
      px      :     0.001990
      py      :    -0.000244
      dz2     :    -0.000036  d :    -0.000556
      dxz     :    -0.000103
      dyz     :    -0.000065
      dx2y2   :    -0.000034
      dxy     :    -0.000318

 67 Cls       :    -0.000754  s :    -0.000754
      pz      :     0.002698  p :     0.999898
      px      :     0.992520
      py      :     0.004681
      dz2     :     0.000189  d :     0.000758
      dxz     :     0.000006
      dyz     :     0.000000
      dx2y2   :     0.000552
      dxy     :     0.000010

 68 Cls       :    -0.000052  s :    -0.000052
      pz      :    -0.001765  p :    -0.005291
      px      :    -0.000213
      py      :    -0.003314
      dz2     :    -0.000320  d :    -0.000813
      dxz     :    -0.000014
      dyz     :    -0.000084
      dx2y2   :    -0.000342
      dxy     :    -0.000053

 69 Cls       :    -0.000053  s :    -0.000053
      pz      :    -0.000649  p :    -0.003247
      px      :     0.000321
      py      :    -0.002920
      dz2     :    -0.000215  d :    -0.000885
      dxz     :    -0.000045
      dyz     :    -0.000101
      dx2y2   :    -0.000036
      dxy     :    -0.000488

 70 Cls       :    -0.000111  s :    -0.000111
      pz      :     0.000621  p :    -0.004099
      px      :    -0.000606
      py      :    -0.004113
      dz2     :    -0.000288  d :    -0.000906
      dxz     :    -0.000034
      dyz     :    -0.000213
      dx2y2   :    -0.000368
      dxy     :    -0.000003

 71 Cls       :    -0.000053  s :    -0.000053
      pz      :     0.000169  p :     0.005805
      px      :    -0.003957
      py      :     0.009593
      dz2     :    -0.000051  d :    -0.000450
      dxz     :    -0.000001
      dyz     :     0.000011
      dx2y2   :    -0.000154
      dxy     :    -0.000256

 72 Cls       :    -0.000154  s :    -0.000154
      pz      :    -0.003017  p :    -0.006444
      px      :     0.001721
      py      :    -0.005147
      dz2     :    -0.000032  d :    -0.000860
      dxz     :    -0.000249
      dyz     :    -0.000018
      dx2y2   :    -0.000269
      dxy     :    -0.000291

 73 O s       :    -0.000012  s :    -0.000012
      pz      :    -0.000179  p :    -0.000417
      px      :    -0.000259
      py      :     0.000021
      dz2     :    -0.000000  d :    -0.000029
      dxz     :     0.000000
      dyz     :    -0.000012
      dx2y2   :    -0.000001
      dxy     :    -0.000015

 74 C s       :     0.000003  s :     0.000003
      pz      :     0.000009  p :     0.000022
      px      :     0.000008
      py      :     0.000005
      dz2     :    -0.000010  d :    -0.000013
      dxz     :    -0.000001
      dyz     :    -0.000000
      dx2y2   :    -0.000003
      dxy     :    -0.000000

 75 H s       :     0.000635  s :     0.000635
      pz      :    -0.000181  p :    -0.000327
      px      :    -0.000051
      py      :    -0.000095

 76 H s       :     0.000687  s :     0.000687
      pz      :    -0.000193  p :    -0.000330
      px      :    -0.000053
      py      :    -0.000084

 77 H s       :    -0.000328  s :    -0.000328
      pz      :     0.000099  p :     0.000180
      px      :     0.000023
      py      :     0.000058

 78 H s       :    -0.000354  s :    -0.000354
      pz      :     0.000102  p :     0.000184
      px      :     0.000034
      py      :     0.000048

 79 H s       :     0.000068  s :     0.000068
      pz      :    -0.000011  p :    -0.000034
      px      :    -0.000015
      py      :    -0.000009

 80 H s       :    -0.000052  s :    -0.000052
      pz      :     0.000008  p :     0.000020
      px      :     0.000010
      py      :     0.000002

 81 H s       :    -0.000048  s :    -0.000048
      pz      :     0.000008  p :     0.000019
      px      :     0.000010
      py      :     0.000002

 82 H s       :     0.000078  s :     0.000078
      pz      :    -0.000013  p :    -0.000039
      px      :    -0.000017
      py      :    -0.000009

 83 H s       :    -0.000331  s :    -0.000331
      pz      :     0.000103  p :     0.000182
      px      :     0.000023
      py      :     0.000056

 84 H s       :     0.000698  s :     0.000698
      pz      :    -0.000205  p :    -0.000337
      px      :    -0.000053
      py      :    -0.000079

 85 H s       :     0.000577  s :     0.000577
      pz      :    -0.000187  p :    -0.000326
      px      :    -0.000051
      py      :    -0.000088

 86 H s       :    -0.000359  s :    -0.000359
      pz      :     0.000107  p :     0.000186
      px      :     0.000034
      py      :     0.000045

 87 H s       :    -0.002071  s :    -0.002071
      pz      :     0.000437  p :     0.000832
      px      :     0.000125
      py      :     0.000270

 88 H s       :    -0.001831  s :    -0.001831
      pz      :     0.000226  p :     0.000721
      px      :     0.000435
      py      :     0.000059

 89 H s       :    -0.001872  s :    -0.001872
      pz      :     0.000251  p :     0.000720
      px      :     0.000436
      py      :     0.000033

 90 H s       :    -0.001859  s :    -0.001859
      pz      :     0.000278  p :     0.000714
      px      :     0.000066
      py      :     0.000371

 91 H s       :    -0.001830  s :    -0.001830
      pz      :     0.000248  p :     0.000715
      px      :     0.000108
      py      :     0.000359

 92 H s       :    -0.002095  s :    -0.002095
      pz      :     0.000448  p :     0.000845
      px      :     0.000128
      py      :     0.000269

 93 H s       :     0.013999  s :     0.013999
      pz      :    -0.000106  p :    -0.000404
      px      :    -0.000088
      py      :    -0.000209

 94 H s       :    -0.000732  s :    -0.000732
      pz      :     0.000023  p :     0.000038
      px      :     0.000020
      py      :    -0.000005

 95 H s       :    -0.001935  s :    -0.001935
      pz      :     0.000287  p :     0.000757
      px      :     0.000072
      py      :     0.000399

 96 H s       :    -0.001910  s :    -0.001910
      pz      :     0.000255  p :     0.000753
      px      :     0.000115
      py      :     0.000382

 97 H s       :     0.000001  s :     0.000001
      pz      :     0.000000  p :     0.000000
      px      :     0.000000
      py      :    -0.000000

 98 H s       :    -0.000024  s :    -0.000024
      pz      :     0.000000  p :    -0.000000
      px      :    -0.000000
      py      :     0.000000

 99 H s       :    -0.000024  s :    -0.000024
      pz      :    -0.000000  p :     0.000000
      px      :     0.000000
      py      :     0.000000



                      *****************************
                      * MAYER POPULATION ANALYSIS *
                      *****************************

  NA   - Mulliken gross atomic population
  ZA   - Total nuclear charge
  QA   - Mulliken gross atomic charge
  VA   - Mayer's total valence
  BVA  - Mayer's bonded valence
  FA   - Mayer's free valence

  ATOM       NA         ZA         QA         VA         BVA        FA
  0 C      6.1174     6.0000    -0.1174     3.9266     3.9261     0.0006
  1 C      5.9264     6.0000     0.0736     3.9656     3.9651     0.0005
  2 C      6.1309     6.0000    -0.1309     3.9447     3.9442     0.0006
  3 C      6.1263     6.0000    -0.1263     3.9252     3.9251     0.0002
  4 C      5.7561     6.0000     0.2439     3.9504     3.9498     0.0006
  5 C      6.1204     6.0000    -0.1204     3.8888     3.8886     0.0002
  6 N      7.5610     7.0000    -0.5610     2.9725     2.9724     0.0001
  7 C      5.7553     6.0000     0.2447     3.9474     3.9468     0.0006
  8 C      5.8261     6.0000     0.1739     3.9706     3.9706     0.0000
  9 C      6.0905     6.0000    -0.0905     3.9259     3.9259     0.0000
 10 C      6.1335     6.0000    -0.1335     3.9319     3.9318     0.0000
 11 C      5.6684     6.0000     0.3316     3.8776     3.8776     0.0000
 12 C      6.1620     6.0000    -0.1620     3.9011     3.9011     0.0000
 13 C      6.0975     6.0000    -0.0975     3.9360     3.9360     0.0000
 14 C      6.1273     6.0000    -0.1273     3.9253     3.9251     0.0002
 15 C      6.1306     6.0000    -0.1306     3.9453     3.9447     0.0006
 16 C      5.9259     6.0000     0.0741     3.9652     3.9647     0.0005
 17 C      6.1165     6.0000    -0.1165     3.9268     3.9263     0.0006
 18 C      6.1209     6.0000    -0.1209     3.8893     3.8891     0.0002
 19 C      5.8094     6.0000     0.1906     4.0027     3.9949     0.0078
 20 N      7.3714     7.0000    -0.3714     3.0316     3.0293     0.0023
 21 C      5.9725     6.0000     0.0275     3.9760     3.9669     0.0091
 22 C      5.8790     6.0000     0.1210     3.8841     3.8718     0.0124
 23 C      6.1067     6.0000    -0.1067     3.9651     3.9560     0.0091
 24 C      6.0826     6.0000    -0.0826     3.8343     3.8308     0.0035
 25 C      6.1051     6.0000    -0.1051     3.9242     3.4821     0.4421
 26 C      5.8678     6.0000     0.1322     3.9258     3.9164     0.0095
 27 C      5.8633     6.0000     0.1367     3.9279     3.9183     0.0096
 28 C      6.1250     6.0000    -0.1250     3.9694     3.9614     0.0081
 29 C      6.0454     6.0000    -0.0454     3.8920     3.8892     0.0028
 30 C      6.0946     6.0000    -0.0946     3.9846     3.9779     0.0066
 31 C      6.0447     6.0000    -0.0447     3.8925     3.8897     0.0028
 32 C      6.1239     6.0000    -0.1239     3.9678     3.9598     0.0081
 33 C      6.1249     6.0000    -0.1249     3.9680     3.9600     0.0079
 34 C      6.0458     6.0000    -0.0458     3.8917     3.8889     0.0027
 35 C      6.0950     6.0000    -0.0950     3.9835     3.9770     0.0065
 36 C      6.0460     6.0000    -0.0460     3.8917     3.8890     0.0027
 37 C      6.1261     6.0000    -0.1261     3.9688     3.9608     0.0080
 38 Cl    16.9787    17.0000     0.0213     1.1409     1.1408     0.0001
 39 Cl    16.9852    17.0000     0.0148     1.1332     1.1331     0.0001
 40 Cl    16.9828    17.0000     0.0172     1.1351     1.1350     0.0001
 41 Cl    16.9862    17.0000     0.0138     1.1466     1.1465     0.0001
 42 Cl    16.9813    17.0000     0.0187     1.1364     1.1363     0.0001
 43 Cl    16.9828    17.0000     0.0172     1.1351     1.1351     0.0001
 44 Cl    16.9934    17.0000     0.0066     1.1039     1.1038     0.0001
 45 Cl    16.9943    17.0000     0.0057     1.1030     1.1029     0.0001
 46 C      5.8096     6.0000     0.1904     4.0031     3.9950     0.0081
 47 N      7.3722     7.0000    -0.3722     3.0309     3.0286     0.0024
 48 C      5.9717     6.0000     0.0283     3.9756     3.9664     0.0092
 49 C      5.8809     6.0000     0.1191     3.8826     3.8702     0.0124
 50 C      6.1064     6.0000    -0.1064     3.9644     3.9551     0.0094
 51 C      6.0822     6.0000    -0.0822     3.8351     3.8315     0.0036
 52 C      6.0838     6.0000    -0.0838     3.9182     3.4723     0.4459
 53 C      5.8624     6.0000     0.1376     3.9254     3.9155     0.0099
 54 C      5.9513     6.0000     0.0487     3.9439     3.9390     0.0049
 55 C      5.9709     6.0000     0.0291     3.8263     3.0596     0.7666
 56 C      6.1070     6.0000    -0.1070     3.9295     3.9269     0.0025
 57 C      6.0824     6.0000    -0.0824     4.0008     3.9974     0.0034
 58 C      6.0481     6.0000    -0.0481     3.9040     3.9040     0.0000
 59 C      6.1069     6.0000    -0.1069     3.9925     3.9883     0.0042
 60 C      6.1369     6.0000    -0.1369     3.9676     3.9588     0.0088
 61 C      6.0459     6.0000    -0.0459     3.8906     3.8876     0.0030
 62 C      6.0956     6.0000    -0.0956     3.9835     3.9763     0.0072
 63 C      6.0475     6.0000    -0.0475     3.8900     3.8870     0.0030
 64 C      6.1298     6.0000    -0.1298     3.9704     3.9616     0.0088
 65 Cl    16.9799    17.0000     0.0201     1.1385     1.1384     0.0001
 66 Cl    16.9891    17.0000     0.0109     1.1284     1.1279     0.0005
 67 Cl    16.9995    17.0000     0.0005     1.0052     0.0020     1.0032
 68 Cl    16.9911    17.0000     0.0089     1.1449     1.1448     0.0001
 69 Cl    16.9813    17.0000     0.0187     1.1326     1.1325     0.0001
 70 Cl    16.9803    17.0000     0.0197     1.1387     1.1386     0.0001
 71 Cl    16.9967    17.0000     0.0033     1.0998     1.0995     0.0003
 72 Cl    16.9938    17.0000     0.0062     1.1034     1.1033     0.0001
 73 O      8.4872     8.0000    -0.4872     2.0065     2.0065     0.0000
 74 C      6.0796     6.0000    -0.0796     3.8233     3.8233     0.0000
 75 H      0.8673     1.0000     0.1327     0.9680     0.9680     0.0000
 76 H      0.9080     1.0000     0.0920     0.9610     0.9610     0.0000
 77 H      0.8911     1.0000     0.1089     0.9660     0.9660     0.0000
 78 H      0.8871     1.0000     0.1129     0.9649     0.9649     0.0000
 79 H      0.8904     1.0000     0.1096     0.9620     0.9620     0.0000
 80 H      0.8923     1.0000     0.1077     0.9626     0.9626     0.0000
 81 H      0.9015     1.0000     0.0985     0.9658     0.9658     0.0000
 82 H      0.8916     1.0000     0.1084     0.9629     0.9629     0.0000
 83 H      0.8916     1.0000     0.1084     0.9663     0.9663     0.0000
 84 H      0.9079     1.0000     0.0921     0.9610     0.9610     0.0000
 85 H      0.8680     1.0000     0.1320     0.9691     0.9691     0.0000
 86 H      0.8867     1.0000     0.1133     0.9648     0.9648     0.0000
 87 H      0.8743     1.0000     0.1257     0.9620     0.9620     0.0000
 88 H      0.8545     1.0000     0.1455     0.9585     0.9584     0.0000
 89 H      0.8544     1.0000     0.1456     0.9584     0.9584     0.0000
 90 H      0.8549     1.0000     0.1451     0.9586     0.9586     0.0000
 91 H      0.8545     1.0000     0.1455     0.9584     0.9584     0.0000
 92 H      0.8744     1.0000     0.1256     0.9620     0.9619     0.0000
 93 H      0.8635     1.0000     0.1365     0.9577     0.9574     0.0003
 94 H      0.8540     1.0000     0.1460     0.9575     0.9575     0.0000
 95 H      0.8543     1.0000     0.1457     0.9585     0.9584     0.0000
 96 H      0.8540     1.0000     0.1460     0.9583     0.9583     0.0000
 97 H      0.8704     1.0000     0.1296     0.9554     0.9554     0.0000
 98 H      0.8881     1.0000     0.1119     0.9510     0.9510     0.0000
 99 H      0.8879     1.0000     0.1121     0.9509     0.9509     0.0000

  Mayer bond orders larger than 0.100000
B(  0-C ,  1-C ) :   1.3843 B(  0-C ,  5-C ) :   1.4435 B(  0-C , 75-H ) :   0.9240 
B(  1-C ,  2-C ) :   1.3954 B(  1-C , 19-C ) :   1.0582 B(  2-C ,  3-C ) :   1.4524 
B(  2-C , 76-H ) :   0.9365 B(  3-C ,  4-C ) :   1.3928 B(  3-C , 77-H ) :   0.9330 
B(  4-C ,  5-C ) :   1.3789 B(  4-C ,  6-N ) :   0.9589 B(  5-C , 78-H ) :   0.9349 
B(  6-N ,  7-C ) :   0.9577 B(  6-N ,  8-C ) :   0.9151 B(  7-C , 14-C ) :   1.3933 
B(  7-C , 18-C ) :   1.3774 B(  8-C ,  9-C ) :   1.3937 B(  8-C , 13-C ) :   1.4431 
B(  9-C , 10-C ) :   1.4673 B(  9-C , 79-H ) :   0.9382 B( 10-C , 11-C ) :   1.3805 
B( 10-C , 80-H ) :   0.9370 B( 11-C , 12-C ) :   1.3816 B( 11-C , 73-O ) :   0.9748 
B( 12-C , 13-C ) :   1.4101 B( 12-C , 81-H ) :   0.9344 B( 13-C , 82-H ) :   0.9379 
B( 14-C , 15-C ) :   1.4511 B( 14-C , 83-H ) :   0.9327 B( 15-C , 16-C ) :   1.3970 
B( 15-C , 84-H ) :   0.9365 B( 16-C , 17-C ) :   1.3832 B( 16-C , 46-C ) :   1.0576 
B( 17-C , 18-C ) :   1.4453 B( 17-C , 85-H ) :   0.9235 B( 18-C , 86-H ) :   0.9349 
B( 19-C , 20-N ) :   1.3689 B( 19-C , 24-C ) :   1.3607 B( 20-N , 21-C ) :   1.4898 
B( 21-C , 22-C ) :   1.2462 B( 21-C , 41-Cl) :   1.0645 B( 22-C , 23-C ) :   1.3256 
B( 22-C , 25-C ) :   1.0793 B( 23-C , 24-C ) :   1.4087 B( 23-C , 38-Cl) :   1.0632 
B( 24-C , 87-H ) :   0.9254 B( 25-C , 26-C ) :   1.0642 B( 25-C , 27-C ) :   1.0640 
B( 26-C , 33-C ) :   1.3319 B( 26-C , 37-C ) :   1.3335 B( 27-C , 28-C ) :   1.3331 
B( 27-C , 32-C ) :   1.3321 B( 28-C , 29-C ) :   1.4169 B( 28-C , 40-Cl) :   1.0549 
B( 29-C , 30-C ) :   1.4027 B( 29-C , 88-H ) :   0.9332 B( 30-C , 31-C ) :   1.4023 
B( 30-C , 44-Cl) :   1.0360 B( 31-C , 32-C ) :   1.4180 B( 31-C , 89-H ) :   0.9331 
B( 32-C , 39-Cl) :   1.0533 B( 33-C , 34-C ) :   1.4171 B( 33-C , 42-Cl) :   1.0558 
B( 34-C , 35-C ) :   1.4022 B( 34-C , 90-H ) :   0.9333 B( 35-C , 36-C ) :   1.4031 
B( 35-C , 45-Cl) :   1.0354 B( 36-C , 37-C ) :   1.4162 B( 36-C , 91-H ) :   0.9332 
B( 37-C , 43-Cl) :   1.0552 B( 46-C , 47-N ) :   1.3691 B( 46-C , 51-C ) :   1.3613 
B( 47-N , 48-C ) :   1.4892 B( 48-C , 49-C ) :   1.2478 B( 48-C , 68-Cl) :   1.0628 
B( 49-C , 50-C ) :   1.3260 B( 49-C , 52-C ) :   1.0811 B( 50-C , 51-C ) :   1.4087 
B( 50-C , 65-Cl) :   1.0617 B( 51-C , 92-H ) :   0.9255 B( 52-C , 53-C ) :   1.0752 
B( 52-C , 54-C ) :   1.0412 B( 53-C , 60-C ) :   1.3324 B( 53-C , 64-C ) :   1.3299 
B( 54-C , 55-C ) :   1.3710 B( 54-C , 59-C ) :   1.3510 B( 55-C , 56-C ) :   1.4698 
B( 56-C , 57-C ) :   1.3967 B( 56-C , 93-H ) :   0.9336 B( 57-C , 58-C ) :   1.4208 
B( 57-C , 71-Cl) :   1.0309 B( 58-C , 59-C ) :   1.4209 B( 58-C , 94-H ) :   0.9322 
B( 59-C , 66-Cl) :   1.0461 B( 60-C , 61-C ) :   1.4140 B( 60-C , 69-Cl) :   1.0550 
B( 61-C , 62-C ) :   1.4039 B( 61-C , 95-H ) :   0.9333 B( 62-C , 63-C ) :   1.4009 
B( 62-C , 72-Cl) :   1.0358 B( 63-C , 64-C ) :   1.4170 B( 63-C , 96-H ) :   0.9333 
B( 64-C , 70-Cl) :   1.0570 B( 73-O , 74-C ) :   0.9185 B( 74-C , 97-H ) :   0.9678 
B( 74-C , 98-H ) :   0.9496 B( 74-C , 99-H ) :   0.9498 


--------------------------
UHF CORRESPONDING ORBITALS
--------------------------
Transforming orbitals                         ... VA transformation done
VB transformation done
T transformation done
R transformation done
done
Choosing virtual orbitals in the orth. comp.  ... done
                ***UHF Corresponding Orbitals were saved in TPA-OMe.uco***


Now the overlap between the corresponding orbitals will be printed
Since there are an equal number of alpha and beta orbitals each orbital in the
alpha set is matched by an orbital in the beta set. If all overlaps are close to
one you have a normal UHF solution with some spin polarization
If you have a broken symmetry solution there will be overlaps that are
significantly smaller than one. These orbitals are the non-orthogonal magnetic
orbitals of the broken symmetry UHF solution.

----------------------
 Orbital    Overlap(*)
----------------------
   0:      1.00000
   1:      1.00000
   2:      1.00000
   3:      1.00000
   4:      1.00000
   5:      1.00000
   6:      1.00000
   7:      1.00000
   8:      1.00000
   9:      1.00000
  10:      1.00000
  11:      1.00000
  12:      1.00000
  13:      1.00000
  14:      1.00000
  15:      1.00000
  16:      1.00000
  17:      1.00000
  18:      1.00000
  19:      1.00000
  20:      1.00000
  21:      1.00000
  22:      1.00000
  23:      1.00000
  24:      1.00000
  25:      1.00000
  26:      1.00000
  27:      1.00000
  28:      1.00000
  29:      1.00000
  30:      1.00000
  31:      1.00000
  32:      1.00000
  33:      1.00000
  34:      1.00000
  35:      1.00000
  36:      1.00000
  37:      1.00000
  38:      1.00000
  39:      1.00000
  40:      1.00000
  41:      1.00000
  42:      1.00000
  43:      1.00000
  44:      1.00000
  45:      1.00000
  46:      1.00000
  47:      1.00000
  48:      1.00000
  49:      1.00000
  50:      1.00000
  51:      1.00000
  52:      1.00000
  53:      1.00000
  54:      1.00000
  55:      1.00000
  56:      1.00000
  57:      1.00000
  58:      1.00000
  59:      1.00000
  60:      1.00000
  61:      1.00000
  62:      1.00000
  63:      1.00000
  64:      1.00000
  65:      1.00000
  66:      1.00000
  67:      1.00000
  68:      1.00000
  69:      1.00000
  70:      1.00000
  71:      1.00000
  72:      1.00000
  73:      1.00000
  74:      1.00000
  75:      1.00000
  76:      1.00000
  77:      1.00000
  78:      1.00000
  79:      1.00000
  80:      1.00000
  81:      1.00000
  82:      1.00000
  83:      1.00000
  84:      1.00000
  85:      1.00000
  86:      1.00000
  87:      1.00000
  88:      1.00000
  89:      1.00000
  90:      1.00000
  91:      1.00000
  92:      1.00000
  93:      1.00000
  94:      1.00000
  95:      1.00000
  96:      1.00000
  97:      1.00000
  98:      1.00000
  99:      1.00000
 100:      1.00000
 101:      1.00000
 102:      1.00000
 103:      1.00000
 104:      1.00000
 105:      1.00000
 106:      1.00000
 107:      1.00000
 108:      1.00000
 109:      1.00000
 110:      1.00000
 111:      1.00000
 112:      1.00000
 113:      1.00000
 114:      1.00000
 115:      1.00000
 116:      1.00000
 117:      1.00000
 118:      1.00000
 119:      1.00000
 120:      1.00000
 121:      1.00000
 122:      1.00000
 123:      1.00000
 124:      1.00000
 125:      1.00000
 126:      1.00000
 127:      1.00000
 128:      1.00000
 129:      1.00000
 130:      1.00000
 131:      1.00000
 132:      1.00000
 133:      1.00000
 134:      1.00000
 135:      1.00000
 136:      1.00000
 137:      1.00000
 138:      1.00000
 139:      1.00000
 140:      1.00000
 141:      1.00000
 142:      1.00000
 143:      1.00000
 144:      1.00000
 145:      1.00000
 146:      1.00000
 147:      1.00000
 148:      1.00000
 149:      1.00000
 150:      1.00000
 151:      1.00000
 152:      1.00000
 153:      1.00000
 154:      1.00000
 155:      1.00000
 156:      1.00000
 157:      1.00000
 158:      1.00000
 159:      1.00000
 160:      1.00000
 161:      1.00000
 162:      1.00000
 163:      1.00000
 164:      1.00000
 165:      1.00000
 166:      1.00000
 167:      1.00000
 168:      1.00000
 169:      1.00000
 170:      1.00000
 171:      1.00000
 172:      1.00000
 173:      1.00000
 174:      1.00000
 175:      1.00000
 176:      1.00000
 177:      1.00000
 178:      1.00000
 179:      1.00000
 180:      1.00000
 181:      1.00000
 182:      1.00000
 183:      1.00000
 184:      1.00000
 185:      1.00000
 186:      1.00000
 187:      1.00000
 188:      1.00000
 189:      1.00000
 190:      1.00000
 191:      1.00000
 192:      1.00000
 193:      1.00000
 194:      1.00000
 195:      1.00000
 196:      1.00000
 197:      1.00000
 198:      1.00000
 199:      1.00000
 200:      1.00000
 201:      1.00000
 202:      1.00000
 203:      1.00000
 204:      1.00000
 205:      1.00000
 206:      1.00000
 207:      1.00000
 208:      1.00000
 209:      1.00000
 210:      1.00000
 211:      1.00000
 212:      1.00000
 213:      1.00000
 214:      1.00000
 215:      1.00000
 216:      1.00000
 217:      1.00000
 218:      1.00000
 219:      1.00000
 220:      1.00000
 221:      1.00000
 222:      1.00000
 223:      1.00000
 224:      1.00000
 225:      1.00000
 226:      1.00000
 227:      1.00000
 228:      1.00000
 229:      1.00000
 230:      1.00000
 231:      1.00000
 232:      1.00000
 233:      1.00000
 234:      1.00000
 235:      1.00000
 236:      1.00000
 237:      1.00000
 238:      1.00000
 239:      1.00000
 240:      1.00000
 241:      1.00000
 242:      1.00000
 243:      1.00000
 244:      1.00000
 245:      1.00000
 246:      1.00000
 247:      1.00000
 248:      1.00000
 249:      1.00000
 250:      1.00000
 251:      0.99999
 252:      0.99999
 253:      0.99999
 254:      0.99999
 255:      0.99999
 256:      0.99999
 257:      0.99999
 258:      0.99999
 259:      0.99999
 260:      0.99999
 261:      0.99999
 262:      0.99999
 263:      0.99999
 264:      0.99999
 265:      0.99999
 266:      0.99999
 267:      0.99999
 268:      0.99999
 269:      0.99999
 270:      0.99999
 271:      0.99999
 272:      0.99999
 273:      0.99999
 274:      0.99999
 275:      0.99999
 276:      0.99999
 277:      0.99999
 278:      0.99999
 279:      0.99998
 280:      0.99998
 281:      0.99998
 282:      0.99998
 283:      0.99997
 284:      0.99997
 285:      0.99997
 286:      0.99997
 287:      0.99997
 288:      0.99997
 289:      0.99997
 290:      0.99997
 291:      0.99996
 292:      0.99996
 293:      0.99996
 294:      0.99995
 295:      0.99993
 296:      0.99990
 297:      0.99989
 298:      0.99988
 299:      0.99986
 300:      0.99984
 301:      0.99984
 302:      0.99983
 303:      0.99980
 304:      0.99976
 305:      0.99963
 306:      0.99962
 307:      0.99960
 308:      0.99955
 309:      0.99946
 310:      0.99942
 311:      0.99925
 312:      0.99925
 313:      0.99920
 314:      0.99912
 315:      0.99889
 316:      0.99845
 317:      0.99841
 318:      0.99839
 319:      0.99833
 320:      0.99819
 321:      0.99661
 322:      0.99598
 323:      0.99595
 324:      0.99336
 325:      0.99318
 326:      0.00820
 327:      0.00061
(*)  the overlap is weighted by the product of occupation numbers
     NOTE: the whole analysis is not valid for fractional occupations

------------------------------------------
BROKEN SYMMETRY MAGNETIC COUPLING ANALYSIS
------------------------------------------

S(High-Spin)      =   0.0    
<S**2>(High-Spin) =   2.0847    
<S**2>(BrokenSym) =   2.0847    
E(High-Spin)      = -9711.930667 Eh
E(BrokenSym)      = -9711.930667 Eh
E(High-Spin)-E(BrokenSym)= -0.0000 eV     -0.001 cm**-1 (FERROMAGNETIC coupling)

          ---------------------------------------------------------
          | Spin-Hamiltonian Analysis based on H(HDvV)= -2J*SA*SB |
    -------                                                       -----------
    | J(1) =        inf cm**-1    (from -(E[HS]-E[BS])/Smax**2)             |
    | J(2) =        inf cm**-1    (from -(E[HS]-E[BS])/(Smax*(Smax+1))      |
    | J(3) =   16033.88 cm**-1    (from -(E[HS]-E[BS])/(<S**2>HS-<S**2>BS)) |
    -------------------------------------------------------------------------

  J(1): (a) A.P. Ginsberg J. Am. Chem. Soc. 102 (1980), 111
        (b) L. Noodleman J. Chem. Phys. 74 (1981), 5737
        (c) L. Noodleman E.R. Davidson Chem. Phys. 109 (1986), 131
  J(2)  (d) A. Bencini D. Gatteschi J. Am. Chem. Soc. 108 (1980), 5763
  J(3)  (e) K. Yamaguchi Y. Takahara T. Fueno in: V.H. Smith (Ed.)
            Applied Quantum Chemistry. Reidel, Dordrecht (1986), pp 155
        (f) T.Soda et al. Chem. Phys. Lett., 319, (2000), 223


----------------
TOTAL SCF ENERGY
----------------

Total Energy       :      -9711.93066738799826 Eh         -264275.06894 eV

Components:
Nuclear Repulsion  :      15155.48915882823530 Eh          412401.82612 eV
Electronic Energy  :     -24867.41983121289377 Eh         -676676.89520 eV
One Electron Energy:     -43585.61592738996114 Eh        -1186024.90573 eV
Two Electron Energy:      18718.19609617706737 Eh          509348.01053 eV

Virial components:
Potential Energy   :     -19394.64643567609892 Eh         -527755.16007 eV
Kinetic Energy     :       9682.71576828810066 Eh          263480.09112 eV
Virial Ratio       :          2.00301722159351

DFT components:
N(Alpha)           :      328.000066949469 electrons
N(Beta)            :      328.000099314850 electrons
N(Total)           :      656.000166264319 electrons
E(XC)              :     -591.440253051590 Eh       

---------------
SCF CONVERGENCE
---------------

  Last Energy change         ...   -3.9508e-09  Tolerance :   1.0000e-08
  Last MAX-Density change    ...    2.7427e-01  Tolerance :   1.0000e-07
  Last RMS-Density change    ...    8.4500e-03  Tolerance :   5.0000e-09
  Last DIIS Error            ...    2.4542e-01  Tolerance :   5.0000e-07


----------------------
UHF SPIN CONTAMINATION
----------------------

Warning: in a DFT calculation there is little theoretical justification to 
         calculate <S**2> as in Hartree-Fock theory. We will do it anyways
         but you should keep in mind that the values have only limited relevance

Expectation value of <S**2>     :     2.084669
Ideal value S*(S+1) for S=0.0   :     0.000000
Deviation                       :     2.084669

----------------
ORBITAL ENERGIES
----------------
                 SPIN UP ORBITALS
  NO   OCC          E(Eh)            E(eV) 
   0   1.0000    -101.643739     -2765.8668 
   1   1.0000    -101.619703     -2765.2127 
   2   1.0000    -101.619402     -2765.2045 
   3   1.0000    -101.619157     -2765.1978 
   4   1.0000    -101.618388     -2765.1769 
   5   1.0000    -101.617324     -2765.1480 
   6   1.0000    -101.617186     -2765.1442 
   7   1.0000    -101.616444     -2765.1240 
   8   1.0000    -101.616143     -2765.1158 
   9   1.0000    -101.615767     -2765.1056 
  10   1.0000    -101.615513     -2765.0987 
  11   1.0000    -101.614898     -2765.0820 
  12   1.0000    -101.614612     -2765.0742 
  13   1.0000    -101.612295     -2765.0111 
  14   1.0000    -101.602815     -2764.7532 
  15   1.0000    -101.602152     -2764.7351 
  16   1.0000     -19.255490      -523.9685 
  17   1.0000     -14.445227      -393.0746 
  18   1.0000     -14.423516      -392.4838 
  19   1.0000     -14.422523      -392.4568 
  20   1.0000     -10.371265      -282.2165 
  21   1.0000     -10.370049      -282.1834 
  22   1.0000     -10.354191      -281.7519 
  23   1.0000     -10.352783      -281.7136 
  24   1.0000     -10.351481      -281.6781 
  25   1.0000     -10.351017      -281.6655 
  26   1.0000     -10.350449      -281.6500 
  27   1.0000     -10.350352      -281.6474 
  28   1.0000     -10.349093      -281.6131 
  29   1.0000     -10.348931      -281.6087 
  30   1.0000     -10.348914      -281.6083 
  31   1.0000     -10.348356      -281.5931 
  32   1.0000     -10.346706      -281.5482 
  33   1.0000     -10.345992      -281.5288 
  34   1.0000     -10.345370      -281.5118 
  35   1.0000     -10.330414      -281.1049 
  36   1.0000     -10.329497      -281.0799 
  37   1.0000     -10.328109      -281.0421 
  38   1.0000     -10.320840      -280.8443 
  39   1.0000     -10.319581      -280.8101 
  40   1.0000     -10.318613      -280.7837 
  41   1.0000     -10.318131      -280.7706 
  42   1.0000     -10.316940      -280.7382 
  43   1.0000     -10.315583      -280.7013 
  44   1.0000     -10.314866      -280.6818 
  45   1.0000     -10.314813      -280.6803 
  46   1.0000     -10.313357      -280.6407 
  47   1.0000     -10.312999      -280.6310 
  48   1.0000     -10.312117      -280.6070 
  49   1.0000     -10.309424      -280.5337 
  50   1.0000     -10.304107      -280.3890 
  51   1.0000     -10.298520      -280.2370 
  52   1.0000     -10.298312      -280.2313 
  53   1.0000     -10.297706      -280.2148 
  54   1.0000     -10.297699      -280.2146 
  55   1.0000     -10.296092      -280.1709 
  56   1.0000     -10.296081      -280.1706 
  57   1.0000     -10.293728      -280.1066 
  58   1.0000     -10.291706      -280.0516 
  59   1.0000     -10.289224      -279.9840 
  60   1.0000     -10.288114      -279.9538 
  61   1.0000     -10.276205      -279.6298 
  62   1.0000     -10.275746      -279.6173 
  63   1.0000     -10.275258      -279.6040 
  64   1.0000     -10.274822      -279.5921 
  65   1.0000     -10.273944      -279.5682 
  66   1.0000     -10.272776      -279.5365 
  67   1.0000     -10.270681      -279.4794 
  68   1.0000     -10.267935      -279.4047 
  69   1.0000     -10.267319      -279.3880 
  70   1.0000     -10.267153      -279.3834 
  71   1.0000     -10.266630      -279.3692 
  72   1.0000     -10.266300      -279.3602 
  73   1.0000     -10.265632      -279.3420 
  74   1.0000     -10.264772      -279.3186 
  75   1.0000      -9.572758      -260.4880 
  76   1.0000      -9.551747      -259.9162 
  77   1.0000      -9.551203      -259.9015 
  78   1.0000      -9.551150      -259.9000 
  79   1.0000      -9.550132      -259.8723 
  80   1.0000      -9.549374      -259.8517 
  81   1.0000      -9.548960      -259.8404 
  82   1.0000      -9.548173      -259.8190 
  83   1.0000      -9.547828      -259.8096 
  84   1.0000      -9.547481      -259.8002 
  85   1.0000      -9.547228      -259.7933 
  86   1.0000      -9.546720      -259.7795 
  87   1.0000      -9.546647      -259.7775 
  88   1.0000      -9.544115      -259.7086 
  89   1.0000      -9.535259      -259.4676 
  90   1.0000      -9.534660      -259.4513 
  91   1.0000      -7.347239      -199.9285 
  92   1.0000      -7.324885      -199.3203 
  93   1.0000      -7.324832      -199.3188 
  94   1.0000      -7.316129      -199.0820 
  95   1.0000      -7.315580      -199.0670 
  96   1.0000      -7.315542      -199.0660 
  97   1.0000      -7.314514      -199.0381 
  98   1.0000      -7.313749      -199.0172 
  99   1.0000      -7.313386      -199.0074 
 100   1.0000      -7.312612      -198.9863 
 101   1.0000      -7.312262      -198.9768 
 102   1.0000      -7.311947      -198.9682 
 103   1.0000      -7.311655      -198.9603 
 104   1.0000      -7.311156      -198.9467 
 105   1.0000      -7.311083      -198.9447 
 106   1.0000      -7.308628      -198.8779 
 107   1.0000      -7.306178      -198.8112 
 108   1.0000      -7.305997      -198.8063 
 109   1.0000      -7.305706      -198.7984 
 110   1.0000      -7.305641      -198.7966 
 111   1.0000      -7.305455      -198.7915 
 112   1.0000      -7.305337      -198.7883 
 113   1.0000      -7.304687      -198.7706 
 114   1.0000      -7.304333      -198.7610 
 115   1.0000      -7.303816      -198.7469 
 116   1.0000      -7.303623      -198.7417 
 117   1.0000      -7.303457      -198.7372 
 118   1.0000      -7.303169      -198.7293 
 119   1.0000      -7.302660      -198.7155 
 120   1.0000      -7.302387      -198.7081 
 121   1.0000      -7.302324      -198.7063 
 122   1.0000      -7.302054      -198.6990 
 123   1.0000      -7.301962      -198.6965 
 124   1.0000      -7.301710      -198.6896 
 125   1.0000      -7.301670      -198.6885 
 126   1.0000      -7.301469      -198.6831 
 127   1.0000      -7.301165      -198.6748 
 128   1.0000      -7.301124      -198.6737 
 129   1.0000      -7.300971      -198.6695 
 130   1.0000      -7.300867      -198.6667 
 131   1.0000      -7.299541      -198.6306 
 132   1.0000      -7.298923      -198.6138 
 133   1.0000      -7.298581      -198.6045 
 134   1.0000      -7.298365      -198.5986 
 135   1.0000      -7.289872      -198.3675 
 136   1.0000      -7.289325      -198.3526 
 137   1.0000      -7.289301      -198.3520 
 138   1.0000      -7.288706      -198.3358 
 139   1.0000      -1.154205       -31.4075 
 140   1.0000      -1.067475       -29.0475 
 141   1.0000      -1.066332       -29.0164 
 142   1.0000      -1.059378       -28.8271 
 143   1.0000      -1.021363       -27.7927 
 144   1.0000      -1.018904       -27.7258 
 145   1.0000      -1.011813       -27.5328 
 146   1.0000      -1.005047       -27.3487 
 147   1.0000      -0.983605       -26.7653 
 148   1.0000      -0.982567       -26.7370 
 149   1.0000      -0.973498       -26.4902 
 150   1.0000      -0.972011       -26.4498 
 151   1.0000      -0.970604       -26.4115 
 152   1.0000      -0.970452       -26.4073 
 153   1.0000      -0.968768       -26.3615 
 154   1.0000      -0.967331       -26.3224 
 155   1.0000      -0.966927       -26.3114 
 156   1.0000      -0.958371       -26.0786 
 157   1.0000      -0.955383       -25.9973 
 158   1.0000      -0.944970       -25.7139 
 159   1.0000      -0.939663       -25.5695 
 160   1.0000      -0.927127       -25.2284 
 161   1.0000      -0.922610       -25.1055 
 162   1.0000      -0.918309       -24.9885 
 163   1.0000      -0.907909       -24.7054 
 164   1.0000      -0.905605       -24.6428 
 165   1.0000      -0.903325       -24.5807 
 166   1.0000      -0.897653       -24.4264 
 167   1.0000      -0.897187       -24.4137 
 168   1.0000      -0.872954       -23.7543 
 169   1.0000      -0.870003       -23.6740 
 170   1.0000      -0.866257       -23.5720 
 171   1.0000      -0.861643       -23.4465 
 172   1.0000      -0.846159       -23.0251 
 173   1.0000      -0.841504       -22.8985 
 174   1.0000      -0.840642       -22.8750 
 175   1.0000      -0.837671       -22.7942 
 176   1.0000      -0.837392       -22.7866 
 177   1.0000      -0.834592       -22.7104 
 178   1.0000      -0.834351       -22.7038 
 179   1.0000      -0.833457       -22.6795 
 180   1.0000      -0.832524       -22.6541 
 181   1.0000      -0.832061       -22.6415 
 182   1.0000      -0.827206       -22.5094 
 183   1.0000      -0.811038       -22.0695 
 184   1.0000      -0.781689       -21.2708 
 185   1.0000      -0.769116       -20.9287 
 186   1.0000      -0.754533       -20.5319 
 187   1.0000      -0.732656       -19.9366 
 188   1.0000      -0.721426       -19.6310 
 189   1.0000      -0.716031       -19.4842 
 190   1.0000      -0.709004       -19.2930 
 191   1.0000      -0.702495       -19.1159 
 192   1.0000      -0.701560       -19.0904 
 193   1.0000      -0.699889       -19.0450 
 194   1.0000      -0.697760       -18.9870 
 195   1.0000      -0.696837       -18.9619 
 196   1.0000      -0.693666       -18.8756 
 197   1.0000      -0.690046       -18.7771 
 198   1.0000      -0.686761       -18.6877 
 199   1.0000      -0.685329       -18.6487 
 200   1.0000      -0.675189       -18.3728 
 201   1.0000      -0.673361       -18.3231 
 202   1.0000      -0.666668       -18.1410 
 203   1.0000      -0.664132       -18.0719 
 204   1.0000      -0.650997       -17.7145 
 205   1.0000      -0.620895       -16.8954 
 206   1.0000      -0.620833       -16.8937 
 207   1.0000      -0.615855       -16.7583 
 208   1.0000      -0.613665       -16.6987 
 209   1.0000      -0.610066       -16.6007 
 210   1.0000      -0.606079       -16.4923 
 211   1.0000      -0.600973       -16.3533 
 212   1.0000      -0.597630       -16.2623 
 213   1.0000      -0.595873       -16.2145 
 214   1.0000      -0.587545       -15.9879 
 215   1.0000      -0.585636       -15.9360 
 216   1.0000      -0.582451       -15.8493 
 217   1.0000      -0.580436       -15.7945 
 218   1.0000      -0.577360       -15.7108 
 219   1.0000      -0.573406       -15.6032 
 220   1.0000      -0.564968       -15.3736 
 221   1.0000      -0.554024       -15.0758 
 222   1.0000      -0.550485       -14.9795 
 223   1.0000      -0.547957       -14.9107 
 224   1.0000      -0.547419       -14.8960 
 225   1.0000      -0.543636       -14.7931 
 226   1.0000      -0.537204       -14.6181 
 227   1.0000      -0.532428       -14.4881 
 228   1.0000      -0.531048       -14.4506 
 229   1.0000      -0.528186       -14.3727 
 230   1.0000      -0.527220       -14.3464 
 231   1.0000      -0.525736       -14.3060 
 232   1.0000      -0.522681       -14.2229 
 233   1.0000      -0.521664       -14.1952 
 234   1.0000      -0.521504       -14.1908 
 235   1.0000      -0.519493       -14.1361 
 236   1.0000      -0.518928       -14.1207 
 237   1.0000      -0.518402       -14.1064 
 238   1.0000      -0.517624       -14.0853 
 239   1.0000      -0.517028       -14.0691 
 240   1.0000      -0.510665       -13.8959 
 241   1.0000      -0.510179       -13.8827 
 242   1.0000      -0.507190       -13.8013 
 243   1.0000      -0.505009       -13.7420 
 244   1.0000      -0.502114       -13.6632 
 245   1.0000      -0.501294       -13.6409 
 246   1.0000      -0.499531       -13.5929 
 247   1.0000      -0.497513       -13.5380 
 248   1.0000      -0.496428       -13.5085 
 249   1.0000      -0.495273       -13.4771 
 250   1.0000      -0.491480       -13.3738 
 251   1.0000      -0.490784       -13.3549 
 252   1.0000      -0.487709       -13.2712 
 253   1.0000      -0.481702       -13.1078 
 254   1.0000      -0.477988       -13.0067 
 255   1.0000      -0.472895       -12.8681 
 256   1.0000      -0.468652       -12.7527 
 257   1.0000      -0.467421       -12.7192 
 258   1.0000      -0.465944       -12.6790 
 259   1.0000      -0.465834       -12.6760 
 260   1.0000      -0.464231       -12.6324 
 261   1.0000      -0.458209       -12.4685 
 262   1.0000      -0.457763       -12.4564 
 263   1.0000      -0.457028       -12.4364 
 264   1.0000      -0.455443       -12.3932 
 265   1.0000      -0.453812       -12.3488 
 266   1.0000      -0.451976       -12.2989 
 267   1.0000      -0.449251       -12.2248 
 268   1.0000      -0.447328       -12.1724 
 269   1.0000      -0.445730       -12.1289 
 270   1.0000      -0.444013       -12.0822 
 271   1.0000      -0.441155       -12.0044 
 272   1.0000      -0.440189       -11.9781 
 273   1.0000      -0.439663       -11.9638 
 274   1.0000      -0.438226       -11.9247 
 275   1.0000      -0.435524       -11.8512 
 276   1.0000      -0.434300       -11.8179 
 277   1.0000      -0.433021       -11.7831 
 278   1.0000      -0.432840       -11.7782 
 279   1.0000      -0.419520       -11.4157 
 280   1.0000      -0.412125       -11.2145 
 281   1.0000      -0.411421       -11.1953 
 282   1.0000      -0.409897       -11.1539 
 283   1.0000      -0.409796       -11.1511 
 284   1.0000      -0.406065       -11.0496 
 285   1.0000      -0.403511       -10.9801 
 286   1.0000      -0.401354       -10.9214 
 287   1.0000      -0.399659       -10.8753 
 288   1.0000      -0.398544       -10.8449 
 289   1.0000      -0.397993       -10.8299 
 290   1.0000      -0.397045       -10.8042 
 291   1.0000      -0.396678       -10.7942 
 292   1.0000      -0.395934       -10.7739 
 293   1.0000      -0.394382       -10.7317 
 294   1.0000      -0.394041       -10.7224 
 295   1.0000      -0.393175       -10.6988 
 296   1.0000      -0.392991       -10.6938 
 297   1.0000      -0.389753       -10.6057 
 298   1.0000      -0.384934       -10.4746 
 299   1.0000      -0.382809       -10.4168 
 300   1.0000      -0.381945       -10.3933 
 301   1.0000      -0.381305       -10.3758 
 302   1.0000      -0.380051       -10.3417 
 303   1.0000      -0.379518       -10.3272 
 304   1.0000      -0.376157       -10.2358 
 305   1.0000      -0.372314       -10.1312 
 306   1.0000      -0.370253       -10.0751 
 307   1.0000      -0.349887        -9.5209 
 308   1.0000      -0.348557        -9.4847 
 309   1.0000      -0.346155        -9.4193 
 310   1.0000      -0.342352        -9.3159 
 311   1.0000      -0.338152        -9.2016 
 312   1.0000      -0.335522        -9.1300 
 313   1.0000      -0.328094        -8.9279 
 314   1.0000      -0.324376        -8.8267 
 315   1.0000      -0.324051        -8.8179 
 316   1.0000      -0.321585        -8.7508 
 317   1.0000      -0.318951        -8.6791 
 318   1.0000      -0.317671        -8.6443 
 319   1.0000      -0.317221        -8.6320 
 320   1.0000      -0.315742        -8.5918 
 321   1.0000      -0.314696        -8.5633 
 322   1.0000      -0.313268        -8.5245 
 323   1.0000      -0.311123        -8.4661 
 324   1.0000      -0.308449        -8.3933 
 325   1.0000      -0.293308        -7.9813 
 326   1.0000      -0.290624        -7.9083 
 327   1.0000      -0.237537        -6.4637 
 328   0.0000      -0.035041        -0.9535 
 329   0.0000      -0.031690        -0.8623 
 330   0.0000       0.022112         0.6017 
 331   0.0000       0.032738         0.8909 
 332   0.0000       0.045119         1.2277 
 333   0.0000       0.047567         1.2944 
 334   0.0000       0.050878         1.3845 
 335   0.0000       0.052201         1.4205 
 336   0.0000       0.058540         1.5930 
 337   0.0000       0.060017         1.6331 
 338   0.0000       0.061460         1.6724 

                 SPIN DOWN ORBITALS
  NO   OCC          E(Eh)            E(eV) 
   0   1.0000    -101.636900     -2765.6807 
   1   1.0000    -101.619764     -2765.2144 
   2   1.0000    -101.619425     -2765.2051 
   3   1.0000    -101.619216     -2765.1994 
   4   1.0000    -101.618410     -2765.1775 
   5   1.0000    -101.617384     -2765.1496 
   6   1.0000    -101.617205     -2765.1447 
   7   1.0000    -101.616467     -2765.1246 
   8   1.0000    -101.616161     -2765.1163 
   9   1.0000    -101.615796     -2765.1064 
  10   1.0000    -101.615532     -2765.0992 
  11   1.0000    -101.614923     -2765.0826 
  12   1.0000    -101.614554     -2765.0726 
  13   1.0000    -101.612150     -2765.0072 
  14   1.0000    -101.602855     -2764.7543 
  15   1.0000    -101.602187     -2764.7361 
  16   1.0000     -19.255505      -523.9689 
  17   1.0000     -14.445489      -393.0817 
  18   1.0000     -14.422480      -392.4556 
  19   1.0000     -14.421465      -392.4280 
  20   1.0000     -10.373292      -282.2716 
  21   1.0000     -10.372095      -282.2390 
  22   1.0000     -10.356171      -281.8057 
  23   1.0000     -10.354791      -281.7682 
  24   1.0000     -10.353453      -281.7318 
  25   1.0000     -10.352971      -281.7187 
  26   1.0000     -10.352325      -281.7011 
  27   1.0000     -10.352227      -281.6984 
  28   1.0000     -10.350980      -281.6645 
  29   1.0000     -10.350791      -281.6593 
  30   1.0000     -10.350522      -281.6520 
  31   1.0000     -10.349871      -281.6343 
  32   1.0000     -10.348237      -281.5898 
  33   1.0000     -10.346531      -281.5434 
  34   1.0000     -10.345348      -281.5112 
  35   1.0000     -10.331156      -281.1251 
  36   1.0000     -10.330453      -281.1059 
  37   1.0000     -10.329798      -281.0881 
  38   1.0000     -10.324007      -280.9305 
  39   1.0000     -10.321027      -280.8494 
  40   1.0000     -10.319580      -280.8101 
  41   1.0000     -10.316522      -280.7268 
  42   1.0000     -10.316075      -280.7147 
  43   1.0000     -10.316000      -280.7126 
  44   1.0000     -10.315285      -280.6932 
  45   1.0000     -10.314872      -280.6819 
  46   1.0000     -10.312517      -280.6179 
  47   1.0000     -10.311300      -280.5847 
  48   1.0000     -10.311080      -280.5788 
  49   1.0000     -10.305883      -280.4373 
  50   1.0000     -10.304075      -280.3881 
  51   1.0000     -10.297579      -280.2114 
  52   1.0000     -10.297376      -280.2058 
  53   1.0000     -10.296817      -280.1906 
  54   1.0000     -10.296811      -280.1905 
  55   1.0000     -10.295196      -280.1465 
  56   1.0000     -10.295184      -280.1462 
  57   1.0000     -10.293376      -280.0970 
  58   1.0000     -10.291654      -280.0502 
  59   1.0000     -10.288230      -279.9570 
  60   1.0000     -10.287104      -279.9263 
  61   1.0000     -10.276327      -279.6331 
  62   1.0000     -10.275623      -279.6139 
  63   1.0000     -10.275419      -279.6084 
  64   1.0000     -10.274659      -279.5877 
  65   1.0000     -10.273991      -279.5695 
  66   1.0000     -10.272817      -279.5376 
  67   1.0000     -10.270657      -279.4788 
  68   1.0000     -10.267727      -279.3991 
  69   1.0000     -10.267705      -279.3985 
  70   1.0000     -10.266932      -279.3774 
  71   1.0000     -10.266697      -279.3710 
  72   1.0000     -10.266606      -279.3685 
  73   1.0000     -10.265409      -279.3360 
  74   1.0000     -10.264547      -279.3125 
  75   1.0000      -9.566015      -260.3045 
  76   1.0000      -9.551806      -259.9179 
  77   1.0000      -9.551260      -259.9030 
  78   1.0000      -9.551172      -259.9006 
  79   1.0000      -9.550154      -259.8729 
  80   1.0000      -9.549432      -259.8533 
  81   1.0000      -9.548978      -259.8409 
  82   1.0000      -9.548196      -259.8196 
  83   1.0000      -9.547845      -259.8101 
  84   1.0000      -9.547509      -259.8009 
  85   1.0000      -9.547246      -259.7938 
  86   1.0000      -9.546670      -259.7781 
  87   1.0000      -9.546663      -259.7779 
  88   1.0000      -9.543971      -259.7046 
  89   1.0000      -9.535297      -259.4686 
  90   1.0000      -9.534694      -259.4522 
  91   1.0000      -7.325403      -199.3344 
  92   1.0000      -7.320814      -199.2095 
  93   1.0000      -7.320762      -199.2081 
  94   1.0000      -7.316095      -199.0811 
  95   1.0000      -7.315548      -199.0662 
  96   1.0000      -7.315471      -199.0641 
  97   1.0000      -7.314443      -199.0361 
  98   1.0000      -7.313717      -199.0164 
  99   1.0000      -7.313311      -199.0053 
 100   1.0000      -7.312544      -198.9844 
 101   1.0000      -7.312190      -198.9748 
 102   1.0000      -7.311879      -198.9663 
 103   1.0000      -7.311584      -198.9583 
 104   1.0000      -7.311016      -198.9429 
 105   1.0000      -7.310851      -198.9384 
 106   1.0000      -7.308162      -198.8652 
 107   1.0000      -7.306434      -198.8182 
 108   1.0000      -7.306036      -198.8074 
 109   1.0000      -7.305887      -198.8033 
 110   1.0000      -7.305853      -198.8024 
 111   1.0000      -7.305493      -198.7926 
 112   1.0000      -7.305357      -198.7889 
 113   1.0000      -7.304837      -198.7747 
 114   1.0000      -7.304351      -198.7615 
 115   1.0000      -7.304065      -198.7537 
 116   1.0000      -7.303662      -198.7427 
 117   1.0000      -7.303593      -198.7409 
 118   1.0000      -7.303191      -198.7299 
 119   1.0000      -7.302797      -198.7192 
 120   1.0000      -7.302457      -198.7099 
 121   1.0000      -7.302420      -198.7090 
 122   1.0000      -7.302106      -198.7004 
 123   1.0000      -7.302070      -198.6994 
 124   1.0000      -7.301843      -198.6932 
 125   1.0000      -7.301720      -198.6899 
 126   1.0000      -7.301488      -198.6836 
 127   1.0000      -7.301277      -198.6779 
 128   1.0000      -7.301268      -198.6776 
 129   1.0000      -7.300917      -198.6681 
 130   1.0000      -7.300897      -198.6675 
 131   1.0000      -7.299498      -198.6294 
 132   1.0000      -7.298877      -198.6125 
 133   1.0000      -7.298554      -198.6038 
 134   1.0000      -7.298244      -198.5953 
 135   1.0000      -7.290037      -198.3720 
 136   1.0000      -7.289461      -198.3563 
 137   1.0000      -7.289374      -198.3539 
 138   1.0000      -7.288745      -198.3368 
 139   1.0000      -1.154239       -31.4084 
 140   1.0000      -1.068299       -29.0699 
 141   1.0000      -1.067136       -29.0382 
 142   1.0000      -1.060014       -28.8444 
 143   1.0000      -1.024167       -27.8690 
 144   1.0000      -1.021074       -27.7848 
 145   1.0000      -1.013200       -27.5706 
 146   1.0000      -1.003594       -27.3092 
 147   1.0000      -0.985638       -26.8206 
 148   1.0000      -0.984449       -26.7882 
 149   1.0000      -0.975261       -26.5382 
 150   1.0000      -0.973533       -26.4912 
 151   1.0000      -0.971840       -26.4451 
 152   1.0000      -0.971714       -26.4417 
 153   1.0000      -0.970013       -26.3954 
 154   1.0000      -0.968566       -26.3560 
 155   1.0000      -0.967226       -26.3196 
 156   1.0000      -0.959302       -26.1039 
 157   1.0000      -0.956412       -26.0253 
 158   1.0000      -0.945598       -25.7310 
 159   1.0000      -0.940966       -25.6050 
 160   1.0000      -0.927665       -25.2430 
 161   1.0000      -0.919691       -25.0261 
 162   1.0000      -0.913745       -24.8643 
 163   1.0000      -0.906052       -24.6549 
 164   1.0000      -0.903584       -24.5878 
 165   1.0000      -0.900240       -24.4968 
 166   1.0000      -0.899780       -24.4843 
 167   1.0000      -0.873049       -23.7569 
 168   1.0000      -0.870384       -23.6843 
 169   1.0000      -0.867628       -23.6093 
 170   1.0000      -0.862561       -23.4715 
 171   1.0000      -0.860064       -23.4035 
 172   1.0000      -0.846236       -23.0272 
 173   1.0000      -0.841622       -22.9017 
 174   1.0000      -0.837578       -22.7916 
 175   1.0000      -0.837492       -22.7893 
 176   1.0000      -0.835863       -22.7450 
 177   1.0000      -0.834642       -22.7118 
 178   1.0000      -0.833723       -22.6867 
 179   1.0000      -0.833091       -22.6696 
 180   1.0000      -0.831709       -22.6319 
 181   1.0000      -0.830152       -22.5896 
 182   1.0000      -0.826988       -22.5035 
 183   1.0000      -0.811063       -22.0702 
 184   1.0000      -0.782773       -21.3003 
 185   1.0000      -0.775454       -21.1012 
 186   1.0000      -0.761256       -20.7148 
 187   1.0000      -0.736741       -20.0477 
 188   1.0000      -0.723741       -19.6940 
 189   1.0000      -0.717185       -19.5156 
 190   1.0000      -0.710638       -19.3374 
 191   1.0000      -0.703562       -19.1449 
 192   1.0000      -0.702387       -19.1129 
 193   1.0000      -0.701443       -19.0872 
 194   1.0000      -0.698784       -19.0149 
 195   1.0000      -0.696814       -18.9613 
 196   1.0000      -0.695276       -18.9194 
 197   1.0000      -0.687687       -18.7129 
 198   1.0000      -0.686848       -18.6901 
 199   1.0000      -0.681981       -18.5577 
 200   1.0000      -0.676164       -18.3994 
 201   1.0000      -0.674579       -18.3562 
 202   1.0000      -0.669781       -18.2257 
 203   1.0000      -0.665413       -18.1068 
 204   1.0000      -0.651437       -17.7265 
 205   1.0000      -0.621427       -16.9099 
 206   1.0000      -0.621092       -16.9008 
 207   1.0000      -0.616415       -16.7735 
 208   1.0000      -0.613456       -16.6930 
 209   1.0000      -0.610876       -16.6228 
 210   1.0000      -0.607055       -16.5188 
 211   1.0000      -0.602970       -16.4076 
 212   1.0000      -0.600503       -16.3405 
 213   1.0000      -0.599046       -16.3009 
 214   1.0000      -0.589354       -16.0371 
 215   1.0000      -0.586580       -15.9616 
 216   1.0000      -0.582855       -15.8603 
 217   1.0000      -0.580847       -15.8056 
 218   1.0000      -0.578744       -15.7484 
 219   1.0000      -0.571213       -15.5435 
 220   1.0000      -0.565187       -15.3795 
 221   1.0000      -0.556027       -15.1303 
 222   1.0000      -0.550679       -14.9847 
 223   1.0000      -0.549057       -14.9406 
 224   1.0000      -0.547997       -14.9118 
 225   1.0000      -0.543480       -14.7888 
 226   1.0000      -0.537892       -14.6368 
 227   1.0000      -0.532981       -14.5032 
 228   1.0000      -0.531052       -14.4506 
 229   1.0000      -0.528450       -14.3798 
 230   1.0000      -0.528064       -14.3693 
 231   1.0000      -0.527589       -14.3564 
 232   1.0000      -0.523142       -14.2354 
 233   1.0000      -0.522267       -14.2116 
 234   1.0000      -0.520962       -14.1761 
 235   1.0000      -0.520325       -14.1588 
 236   1.0000      -0.519442       -14.1347 
 237   1.0000      -0.518811       -14.1176 
 238   1.0000      -0.518626       -14.1125 
 239   1.0000      -0.517484       -14.0815 
 240   1.0000      -0.513139       -13.9632 
 241   1.0000      -0.511606       -13.9215 
 242   1.0000      -0.509195       -13.8559 
 243   1.0000      -0.506847       -13.7920 
 244   1.0000      -0.504872       -13.7383 
 245   1.0000      -0.502402       -13.6711 
 246   1.0000      -0.500740       -13.6258 
 247   1.0000      -0.498171       -13.5559 
 248   1.0000      -0.496691       -13.5156 
 249   1.0000      -0.495978       -13.4963 
 250   1.0000      -0.492146       -13.3920 
 251   1.0000      -0.488040       -13.2802 
 252   1.0000      -0.485814       -13.2197 
 253   1.0000      -0.482774       -13.1370 
 254   1.0000      -0.478239       -13.0135 
 255   1.0000      -0.474238       -12.9047 
 256   1.0000      -0.469526       -12.7764 
 257   1.0000      -0.468613       -12.7516 
 258   1.0000      -0.467862       -12.7312 
 259   1.0000      -0.465686       -12.6720 
 260   1.0000      -0.460864       -12.5408 
 261   1.0000      -0.459180       -12.4949 
 262   1.0000      -0.457328       -12.4445 
 263   1.0000      -0.456423       -12.4199 
 264   1.0000      -0.455921       -12.4063 
 265   1.0000      -0.452373       -12.3097 
 266   1.0000      -0.451227       -12.2785 
 267   1.0000      -0.448897       -12.2151 
 268   1.0000      -0.447535       -12.1781 
 269   1.0000      -0.446039       -12.1373 
 270   1.0000      -0.443971       -12.0811 
 271   1.0000      -0.442917       -12.0524 
 272   1.0000      -0.441218       -12.0062 
 273   1.0000      -0.441038       -12.0012 
 274   1.0000      -0.437666       -11.9095 
 275   1.0000      -0.436274       -11.8716 
 276   1.0000      -0.436031       -11.8650 
 277   1.0000      -0.435299       -11.8451 
 278   1.0000      -0.421225       -11.4621 
 279   1.0000      -0.413212       -11.2441 
 280   1.0000      -0.412583       -11.2270 
 281   1.0000      -0.408068       -11.1041 
 282   1.0000      -0.403826       -10.9887 
 283   1.0000      -0.401727       -10.9315 
 284   1.0000      -0.400142       -10.8884 
 285   1.0000      -0.398053       -10.8316 
 286   1.0000      -0.397226       -10.8091 
 287   1.0000      -0.396905       -10.8003 
 288   1.0000      -0.396332       -10.7847 
 289   1.0000      -0.396262       -10.7828 
 290   1.0000      -0.394572       -10.7368 
 291   1.0000      -0.394220       -10.7273 
 292   1.0000      -0.393485       -10.7073 
 293   1.0000      -0.393266       -10.7013 
 294   1.0000      -0.393256       -10.7010 
 295   1.0000      -0.393126       -10.6975 
 296   1.0000      -0.391790       -10.6612 
 297   1.0000      -0.384407       -10.4602 
 298   1.0000      -0.383027       -10.4227 
 299   1.0000      -0.382238       -10.4012 
 300   1.0000      -0.381376       -10.3778 
 301   1.0000      -0.381178       -10.3724 
 302   1.0000      -0.380873       -10.3641 
 303   1.0000      -0.376179       -10.2364 
 304   1.0000      -0.373608       -10.1664 
 305   1.0000      -0.371448       -10.1076 
 306   1.0000      -0.363154        -9.8819 
 307   1.0000      -0.362176        -9.8553 
 308   1.0000      -0.346199        -9.4205 
 309   1.0000      -0.340641        -9.2693 
 310   1.0000      -0.335923        -9.1409 
 311   1.0000      -0.333778        -9.0826 
 312   1.0000      -0.332326        -9.0431 
 313   1.0000      -0.324647        -8.8341 
 314   1.0000      -0.322402        -8.7730 
 315   1.0000      -0.320524        -8.7219 
 316   1.0000      -0.319131        -8.6840 
 317   1.0000      -0.318760        -8.6739 
 318   1.0000      -0.316594        -8.6150 
 319   1.0000      -0.316193        -8.6040 
 320   1.0000      -0.314304        -8.5526 
 321   1.0000      -0.312475        -8.5029 
 322   1.0000      -0.311944        -8.4884 
 323   1.0000      -0.297040        -8.0829 
 324   1.0000      -0.292257        -7.9527 
 325   1.0000      -0.262290        -7.1373 
 326   1.0000      -0.252965        -6.8835 
 327   1.0000      -0.229826        -6.2539 
 328   0.0000      -0.129826        -3.5328 
 329   0.0000      -0.016200        -0.4408 
 330   0.0000       0.017190         0.4678 
 331   0.0000       0.027315         0.7433 
 332   0.0000       0.039711         1.0806 
 333   0.0000       0.042789         1.1643 
 334   0.0000       0.046872         1.2755 
 335   0.0000       0.048406         1.3172 
 336   0.0000       0.054835         1.4921 
 337   0.0000       0.055955         1.5226 
 338   0.0000       0.057688         1.5698 
*Only the first 10 virtual orbitals were printed.

                    ********************************
                    * MULLIKEN POPULATION ANALYSIS *
                    ********************************

--------------------------------------------
MULLIKEN ATOMIC CHARGES AND SPIN POPULATIONS
--------------------------------------------
   0 C :   -0.117450   -0.030399
   1 C :    0.073622    0.034337
   2 C :   -0.130894   -0.030695
   3 C :   -0.126265    0.018067
   4 C :    0.243945   -0.029198
   5 C :   -0.120440    0.018975
   6 N :   -0.561005   -0.008188
   7 C :    0.244698   -0.029360
   8 C :    0.173870    0.002419
   9 C :   -0.090540   -0.002825
  10 C :   -0.133454    0.001912
  11 C :    0.331629   -0.002584
  12 C :   -0.161992    0.001845
  13 C :   -0.097464   -0.003257
  14 C :   -0.127287    0.018267
  15 C :   -0.130611   -0.031206
  16 C :    0.074054    0.034930
  17 C :   -0.116541   -0.030359
  18 C :   -0.120929    0.019167
  19 C :    0.190586   -0.110338
  20 N :   -0.371448    0.056661
  21 C :    0.027478   -0.117480
  22 C :    0.120967    0.172685
  23 C :   -0.106743   -0.121481
  24 C :   -0.082596    0.078201
  25 C :   -0.105056   -0.820678
  26 C :    0.132190    0.154487
  27 C :    0.136737    0.155708
  28 C :   -0.125025   -0.114887
  29 C :   -0.045406    0.069548
  30 C :   -0.094648   -0.099737
  31 C :   -0.044734    0.069478
  32 C :   -0.123913   -0.114920
  33 C :   -0.124890   -0.114072
  34 C :   -0.045771    0.068879
  35 C :   -0.094991   -0.098763
  36 C :   -0.046032    0.068952
  37 C :   -0.126108   -0.114189
  38 Cl:    0.021335   -0.002941
  39 Cl:    0.014846   -0.002281
  40 Cl:    0.017245   -0.002851
  41 Cl:    0.013825   -0.004665
  42 Cl:    0.018669   -0.002266
  43 Cl:    0.017235   -0.002764
  44 Cl:    0.006571   -0.005458
  45 Cl:    0.005709   -0.005328
  46 C :    0.190353   -0.112270
  47 N :   -0.372223    0.057832
  48 C :    0.028262   -0.118317
  49 C :    0.119146    0.172356
  50 C :   -0.106404   -0.123255
  51 C :   -0.082230    0.079416
  52 C :   -0.083761   -0.809058
  53 C :    0.137579    0.158315
  54 C :    0.048661    0.075711
  55 C :    0.029086    0.917801
  56 C :   -0.107028   -0.020647
  57 C :   -0.082434   -0.027195
  58 C :   -0.048095    0.008460
  59 C :   -0.106866   -0.050243
  60 C :   -0.136903   -0.119592
  61 C :   -0.045875    0.072847
  62 C :   -0.095552   -0.103827
  63 C :   -0.047518    0.072554
  64 C :   -0.129807   -0.119052
  65 Cl:    0.020077   -0.002952
  66 Cl:    0.010873    0.016290
  67 Cl:    0.000490    0.999885
  68 Cl:    0.008863   -0.004616
  69 Cl:    0.018706   -0.002427
  70 Cl:    0.019695   -0.003302
  71 Cl:    0.003335    0.008990
  72 Cl:    0.006214   -0.005499
  73 O :   -0.487189   -0.000368
  74 C :   -0.079593    0.000040
  75 H :    0.132702    0.001128
  76 H :    0.092040    0.001311
  77 H :    0.108903   -0.000629
  78 H :    0.112857   -0.000663
  79 H :    0.109563    0.000132
  80 H :    0.107678   -0.000088
  81 H :    0.098488   -0.000083
  82 H :    0.108447    0.000152
  83 H :    0.108427   -0.000636
  84 H :    0.092095    0.001334
  85 H :    0.131952    0.000878
  86 H :    0.113254   -0.000676
  87 H :    0.125727   -0.003691
  88 H :    0.145466   -0.003108
  89 H :    0.145621   -0.003165
  90 H :    0.145122   -0.003138
  91 H :    0.145526   -0.003102
  92 H :    0.125559   -0.003745
  93 H :    0.136484    0.016268
  94 H :    0.145969   -0.001100
  95 H :    0.145725   -0.003288
  96 H :    0.145952   -0.003244
  97 H :    0.129596    0.000001
  98 H :    0.111943   -0.000038
  99 H :    0.112061   -0.000036
Sum of atomic charges         :   -0.0000000
Sum of atomic spin populations:    0.0000000

-----------------------------------------------------
MULLIKEN REDUCED ORBITAL CHARGES AND SPIN POPULATIONS
-----------------------------------------------------
CHARGE
  0 C s       :     3.186422  s :     3.186422
      pz      :     0.972981  p :     2.895753
      px      :     0.936349
      py      :     0.986423
      dz2     :     0.003997  d :     0.035274
      dxz     :     0.007590
      dyz     :     0.005435
      dx2y2   :     0.009533
      dxy     :     0.008719

  1 C s       :     3.134043  s :     3.134043
      pz      :     0.967496  p :     2.753851
      px      :     0.883224
      py      :     0.903131
      dz2     :     0.006256  d :     0.038484
      dxz     :     0.006554
      dyz     :     0.005892
      dx2y2   :     0.009500
      dxy     :     0.010282

  2 C s       :     3.170972  s :     3.170972
      pz      :     0.980081  p :     2.924208
      px      :     0.976044
      py      :     0.968083
      dz2     :     0.003772  d :     0.035713
      dxz     :     0.007568
      dyz     :     0.005880
      dx2y2   :     0.009443
      dxy     :     0.009050

  3 C s       :     3.160357  s :     3.160357
      pz      :     0.978338  p :     2.932235
      px      :     0.952192
      py      :     1.001706
      dz2     :     0.003800  d :     0.033673
      dxz     :     0.007494
      dyz     :     0.005159
      dx2y2   :     0.009091
      dxy     :     0.008129

  4 C s       :     3.083958  s :     3.083958
      pz      :     0.907143  p :     2.614381
      px      :     0.794453
      py      :     0.912784
      dz2     :     0.008080  d :     0.057717
      dxz     :     0.014624
      dyz     :     0.008424
      dx2y2   :     0.012136
      dxy     :     0.014452

  5 C s       :     3.162333  s :     3.162333
      pz      :     0.971077  p :     2.924341
      px      :     0.986071
      py      :     0.967193
      dz2     :     0.003648  d :     0.033765
      dxz     :     0.007185
      dyz     :     0.005713
      dx2y2   :     0.009140
      dxy     :     0.008079

  6 N s       :     3.578509  s :     3.578509
      pz      :     1.706196  p :     3.943806
      px      :     1.118287
      py      :     1.119323
      dz2     :     0.003285  d :     0.038689
      dxz     :     0.005377
      dyz     :     0.004999
      dx2y2   :     0.012316
      dxy     :     0.012713

  7 C s       :     3.083212  s :     3.083212
      pz      :     0.909802  p :     2.614409
      px      :     0.793015
      py      :     0.911591
      dz2     :     0.007845  d :     0.057681
      dxz     :     0.014437
      dyz     :     0.008377
      dx2y2   :     0.012382
      dxy     :     0.014641

  8 C s       :     3.090296  s :     3.090296
      pz      :     0.919661  p :     2.680209
      px      :     1.016677
      py      :     0.743871
      dz2     :     0.009908  d :     0.055626
      dxz     :     0.005437
      dyz     :     0.018085
      dx2y2   :     0.013524
      dxy     :     0.008672

  9 C s       :     3.166834  s :     3.166834
      pz      :     0.954499  p :     2.888721
      px      :     0.989545
      py      :     0.944678
      dz2     :     0.005231  d :     0.034985
      dxz     :     0.004685
      dyz     :     0.010049
      dx2y2   :     0.006357
      dxy     :     0.008661

 10 C s       :     3.169995  s :     3.169995
      pz      :     0.985540  p :     2.930360
      px      :     0.996234
      py      :     0.948586
      dz2     :     0.004674  d :     0.033100
      dxz     :     0.004405
      dyz     :     0.009592
      dx2y2   :     0.006003
      dxy     :     0.008425

 11 C s       :     3.063852  s :     3.063852
      pz      :     0.932098  p :     2.533344
      px      :     0.935490
      py      :     0.665755
      dz2     :     0.011549  d :     0.071175
      dxz     :     0.005522
      dyz     :     0.018585
      dx2y2   :     0.017696
      dxy     :     0.017823

 12 C s       :     3.146840  s :     3.146840
      pz      :     0.992027  p :     2.981938
      px      :     1.014814
      py      :     0.975097
      dz2     :     0.004872  d :     0.033215
      dxz     :     0.004642
      dyz     :     0.009328
      dx2y2   :     0.006110
      dxy     :     0.008261

 13 C s       :     3.167885  s :     3.167885
      pz      :     0.959031  p :     2.894611
      px      :     0.993782
      py      :     0.941799
      dz2     :     0.005237  d :     0.034968
      dxz     :     0.004690
      dyz     :     0.009986
      dx2y2   :     0.006476
      dxy     :     0.008578

 14 C s       :     3.159965  s :     3.159965
      pz      :     0.980380  p :     2.933659
      px      :     0.952540
      py      :     1.000739
      dz2     :     0.003734  d :     0.033663
      dxz     :     0.007361
      dyz     :     0.004980
      dx2y2   :     0.009291
      dxy     :     0.008297

 15 C s       :     3.170933  s :     3.170933
      pz      :     0.980919  p :     2.923967
      px      :     0.975826
      py      :     0.967222
      dz2     :     0.003593  d :     0.035711
      dxz     :     0.007293
      dyz     :     0.005936
      dx2y2   :     0.009529
      dxy     :     0.009360

 16 C s       :     3.134034  s :     3.134034
      pz      :     0.972549  p :     2.753410
      px      :     0.883240
      py      :     0.897621
      dz2     :     0.006025  d :     0.038502
      dxz     :     0.006383
      dyz     :     0.005912
      dx2y2   :     0.009720
      dxy     :     0.010461

 17 C s       :     3.186560  s :     3.186560
      pz      :     0.969770  p :     2.894713
      px      :     0.935951
      py      :     0.988992
      dz2     :     0.003921  d :     0.035269
      dxz     :     0.007493
      dyz     :     0.005271
      dx2y2   :     0.009726
      dxy     :     0.008857

 18 C s       :     3.162543  s :     3.162543
      pz      :     0.973947  p :     2.924617
      px      :     0.987074
      py      :     0.963596
      dz2     :     0.003504  d :     0.033770
      dxz     :     0.006967
      dyz     :     0.005698
      dx2y2   :     0.009282
      dxy     :     0.008319

 19 C s       :     3.076912  s :     3.076912
      pz      :     0.870817  p :     2.671921
      px      :     0.968004
      py      :     0.833101
      dz2     :     0.009146  d :     0.060581
      dxz     :     0.010623
      dyz     :     0.010549
      dx2y2   :     0.014158
      dxy     :     0.016105

 20 N s       :     3.652568  s :     3.652568
      pz      :     1.263230  p :     3.680720
      px      :     1.323364
      py      :     1.094126
      dz2     :     0.006420  d :     0.038160
      dxz     :     0.006152
      dyz     :     0.007525
      dx2y2   :     0.009924
      dxy     :     0.008139

 21 C s       :     3.128011  s :     3.128011
      pz      :     0.920508  p :     2.774184
      px      :     0.981403
      py      :     0.872272
      dz2     :     0.009234  d :     0.070327
      dxz     :     0.013753
      dyz     :     0.011726
      dx2y2   :     0.020147
      dxy     :     0.015467

 22 C s       :     3.128337  s :     3.128337
      pz      :     0.958434  p :     2.711286
      px      :     0.862828
      py      :     0.890024
      dz2     :     0.005265  d :     0.039410
      dxz     :     0.008765
      dyz     :     0.006747
      dx2y2   :     0.010048
      dxy     :     0.008585

 23 C s       :     3.192955  s :     3.192955
      pz      :     0.935089  p :     2.863638
      px      :     0.925525
      py      :     1.003024
      dz2     :     0.007787  d :     0.050150
      dxz     :     0.010894
      dyz     :     0.007830
      dx2y2   :     0.012147
      dxy     :     0.011491

 24 C s       :     3.136502  s :     3.136502
      pz      :     1.009867  p :     2.913603
      px      :     0.913668
      py      :     0.990068
      dz2     :     0.003801  d :     0.032491
      dxz     :     0.006474
      dyz     :     0.005537
      dx2y2   :     0.008402
      dxy     :     0.008278

 25 C s       :     3.159283  s :     3.159283
      pz      :     1.000928  p :     2.906423
      px      :     0.953402
      py      :     0.952093
      dz2     :     0.003578  d :     0.039350
      dxz     :     0.004850
      dyz     :     0.004329
      dx2y2   :     0.012934
      dxy     :     0.013660

 26 C s       :     3.127780  s :     3.127780
      pz      :     0.900809  p :     2.699965
      px      :     0.872957
      py      :     0.926198
      dz2     :     0.007169  d :     0.040065
      dxz     :     0.010892
      dyz     :     0.006332
      dx2y2   :     0.008015
      dxy     :     0.007657

 27 C s       :     3.125965  s :     3.125965
      pz      :     0.889234  p :     2.697243
      px      :     0.938205
      py      :     0.869805
      dz2     :     0.007277  d :     0.040055
      dxz     :     0.005235
      dyz     :     0.012619
      dx2y2   :     0.007568
      dxy     :     0.007356

 28 C s       :     3.188866  s :     3.188866
      pz      :     0.893829  p :     2.887115
      px      :     0.984713
      py      :     1.008573
      dz2     :     0.010791  d :     0.049044
      dxz     :     0.007561
      dyz     :     0.012874
      dx2y2   :     0.008266
      dxy     :     0.009552

 29 C s       :     3.141801  s :     3.141801
      pz      :     0.967836  p :     2.870056
      px      :     0.982420
      py      :     0.919800
      dz2     :     0.006450  d :     0.033549
      dxz     :     0.004866
      dyz     :     0.008821
      dx2y2   :     0.006542
      dxy     :     0.006869

 30 C s       :     3.181989  s :     3.181989
      pz      :     1.018820  p :     2.862362
      px      :     1.022514
      py      :     0.821028
      dz2     :     0.010499  d :     0.050298
      dxz     :     0.005835
      dyz     :     0.012628
      dx2y2   :     0.011414
      dxy     :     0.009920

 31 C s       :     3.141471  s :     3.141471
      pz      :     0.990904  p :     2.869711
      px      :     0.990517
      py      :     0.888290
      dz2     :     0.005956  d :     0.033552
      dxz     :     0.004660
      dyz     :     0.009055
      dx2y2   :     0.006442
      dxy     :     0.007439

 32 C s       :     3.188723  s :     3.188723
      pz      :     0.924669  p :     2.886191
      px      :     0.993931
      py      :     0.967591
      dz2     :     0.010272  d :     0.048999
      dxz     :     0.007047
      dyz     :     0.013504
      dx2y2   :     0.008371
      dxy     :     0.009805

 33 C s       :     3.189301  s :     3.189301
      pz      :     0.939750  p :     2.886572
      px      :     0.929424
      py      :     1.017399
      dz2     :     0.009753  d :     0.049017
      dxz     :     0.013009
      dyz     :     0.007040
      dx2y2   :     0.009737
      dxy     :     0.009477

 34 C s       :     3.141824  s :     3.141824
      pz      :     0.994775  p :     2.870399
      px      :     0.878704
      py      :     0.996920
      dz2     :     0.005466  d :     0.033547
      dxz     :     0.008392
      dyz     :     0.005217
      dx2y2   :     0.006724
      dxy     :     0.007748

 35 C s       :     3.181981  s :     3.181981
      pz      :     1.017395  p :     2.862728
      px      :     0.858256
      py      :     0.987077
      dz2     :     0.010120  d :     0.050282
      dxz     :     0.011515
      dyz     :     0.006465
      dx2y2   :     0.010810
      dxy     :     0.011374

 36 C s       :     3.142017  s :     3.142017
      pz      :     0.966254  p :     2.870467
      px      :     0.956411
      py      :     0.947802
      dz2     :     0.006191  d :     0.033548
      dxz     :     0.008209
      dyz     :     0.005214
      dx2y2   :     0.007612
      dxy     :     0.006323

 37 C s       :     3.189281  s :     3.189281
      pz      :     0.899447  p :     2.887776
      px      :     1.026526
      py      :     0.961803
      dz2     :     0.010288  d :     0.049051
      dxz     :     0.011535
      dyz     :     0.008523
      dx2y2   :     0.009314
      dxy     :     0.009392

 38 Cls       :     5.926163  s :     5.926163
      pz      :     3.650820  p :    11.022347
      px      :     3.513641
      py      :     3.857886
      dz2     :     0.003941  d :     0.030155
      dxz     :     0.012356
      dyz     :     0.003174
      dx2y2   :     0.004877
      dxy     :     0.005809

 39 Cls       :     5.926642  s :     5.926642
      pz      :     3.518724  p :    11.028280
      px      :     3.793101
      py      :     3.716455
      dz2     :     0.005494  d :     0.030232
      dxz     :     0.006969
      dyz     :     0.010429
      dx2y2   :     0.002339
      dxy     :     0.005001

 40 Cls       :     5.926455  s :     5.926455
      pz      :     3.403096  p :    11.026001
      px      :     3.752680
      py      :     3.870225
      dz2     :     0.009013  d :     0.030300
      dxz     :     0.010553
      dyz     :     0.005985
      dx2y2   :     0.002119
      dxy     :     0.002630

 41 Cls       :     5.927229  s :     5.927229
      pz      :     3.615207  p :    11.030933
      px      :     3.939477
      py      :     3.476249
      dz2     :     0.004035  d :     0.028013
      dxz     :     0.001433
      dyz     :     0.013811
      dx2y2   :     0.006593
      dxy     :     0.002140

 42 Cls       :     5.927299  s :     5.927299
      pz      :     3.572491  p :    11.023701
      px      :     3.558585
      py      :     3.892624
      dz2     :     0.004563  d :     0.030331
      dxz     :     0.013838
      dyz     :     0.003216
      dx2y2   :     0.004245
      dxy     :     0.004469

 43 Cls       :     5.926708  s :     5.926708
      pz      :     3.425026  p :    11.025746
      px      :     3.938695
      py      :     3.662026
      dz2     :     0.008494  d :     0.030311
      dxz     :     0.002820
      dyz     :     0.013776
      dx2y2   :     0.003653
      dxy     :     0.001569

 44 Cls       :     5.925639  s :     5.925639
      pz      :     3.935205  p :    11.037861
      px      :     3.935254
      py      :     3.167402
      dz2     :     0.004843  d :     0.029928
      dxz     :     0.000141
      dyz     :     0.005095
      dx2y2   :     0.014220
      dxy     :     0.005629

 45 Cls       :     5.925695  s :     5.925695
      pz      :     3.926762  p :    11.038695
      px      :     3.312943
      py      :     3.798990
      dz2     :     0.004680  d :     0.029900
      dxz     :     0.004803
      dyz     :     0.001000
      dx2y2   :     0.008642
      dxy     :     0.010775

 46 C s       :     3.076499  s :     3.076499
      pz      :     0.872627  p :     2.672606
      px      :     0.968279
      py      :     0.831700
      dz2     :     0.008987  d :     0.060541
      dxz     :     0.010407
      dyz     :     0.010605
      dx2y2   :     0.014291
      dxy     :     0.016251

 47 N s       :     3.652019  s :     3.652019
      pz      :     1.265251  p :     3.682045
      px      :     1.320109
      py      :     1.096685
      dz2     :     0.006314  d :     0.038159
      dxz     :     0.006148
      dyz     :     0.007573
      dx2y2   :     0.010050
      dxy     :     0.008075

 48 C s       :     3.127371  s :     3.127371
      pz      :     0.923481  p :     2.774095
      px      :     0.981070
      py      :     0.869544
      dz2     :     0.009063  d :     0.070272
      dxz     :     0.013642
      dyz     :     0.011658
      dx2y2   :     0.020338
      dxy     :     0.015572

 49 C s       :     3.128788  s :     3.128788
      pz      :     0.960453  p :     2.712563
      px      :     0.864759
      py      :     0.887351
      dz2     :     0.005196  d :     0.039503
      dxz     :     0.008797
      dyz     :     0.006703
      dx2y2   :     0.010151
      dxy     :     0.008655

 50 C s       :     3.192491  s :     3.192491
      pz      :     0.935890  p :     2.863799
      px      :     0.926585
      py      :     1.001324
      dz2     :     0.007683  d :     0.050114
      dxz     :     0.010765
      dyz     :     0.007910
      dx2y2   :     0.012170
      dxy     :     0.011586

 51 C s       :     3.136452  s :     3.136452
      pz      :     1.008763  p :     2.913263
      px      :     0.914422
      py      :     0.990079
      dz2     :     0.003782  d :     0.032515
      dxz     :     0.006425
      dyz     :     0.005528
      dx2y2   :     0.008471
      dxy     :     0.008308

 52 C s       :     3.162289  s :     3.162289
      pz      :     0.999801  p :     2.882318
      px      :     0.943180
      py      :     0.939337
      dz2     :     0.003512  d :     0.039154
      dxz     :     0.004832
      dyz     :     0.004387
      dx2y2   :     0.012680
      dxy     :     0.013743

 53 C s       :     3.121901  s :     3.121901
      pz      :     0.894100  p :     2.700429
      px      :     0.874718
      py      :     0.931611
      dz2     :     0.007225  d :     0.040091
      dxz     :     0.011085
      dyz     :     0.006269
      dx2y2   :     0.007917
      dxy     :     0.007595

 54 C s       :     3.146479  s :     3.146479
      pz      :     0.914219  p :     2.763154
      px      :     0.966441
      py      :     0.882495
      dz2     :     0.008104  d :     0.041706
      dxz     :     0.005765
      dyz     :     0.012145
      dx2y2   :     0.008544
      dxy     :     0.007148

 55 C s       :     3.257082  s :     3.257082
      pz      :     0.891269  p :     2.682130
      px      :     0.914558
      py      :     0.876304
      dz2     :     0.005319  d :     0.031701
      dxz     :     0.003146
      dyz     :     0.009016
      dx2y2   :     0.006579
      dxy     :     0.007641

 56 C s       :     3.160942  s :     3.160942
      pz      :     0.970686  p :     2.911449
      px      :     0.998550
      py      :     0.942212
      dz2     :     0.006175  d :     0.034637
      dxz     :     0.004798
      dyz     :     0.010099
      dx2y2   :     0.006224
      dxy     :     0.007341

 57 C s       :     3.172524  s :     3.172524
      pz      :     1.014017  p :     2.859291
      px      :     1.022325
      py      :     0.822949
      dz2     :     0.010569  d :     0.050619
      dxz     :     0.005856
      dyz     :     0.012714
      dx2y2   :     0.011513
      dxy     :     0.009968

 58 C s       :     3.137247  s :     3.137247
      pz      :     0.995570  p :     2.877413
      px      :     0.995984
      py      :     0.885859
      dz2     :     0.005856  d :     0.033435
      dxz     :     0.004638
      dyz     :     0.009012
      dx2y2   :     0.006450
      dxy     :     0.007479

 59 C s       :     3.178687  s :     3.178687
      pz      :     0.918646  p :     2.879068
      px      :     0.988924
      py      :     0.971498
      dz2     :     0.010181  d :     0.049111
      dxz     :     0.007125
      dyz     :     0.013525
      dx2y2   :     0.008453
      dxy     :     0.009827

 60 C s       :     3.191920  s :     3.191920
      pz      :     0.938330  p :     2.895912
      px      :     0.932342
      py      :     1.025239
      dz2     :     0.009906  d :     0.049071
      dxz     :     0.013146
      dyz     :     0.007021
      dx2y2   :     0.009662
      dxy     :     0.009336

 61 C s       :     3.141982  s :     3.141982
      pz      :     0.995465  p :     2.870360
      px      :     0.879041
      py      :     0.995853
      dz2     :     0.005590  d :     0.033534
      dxz     :     0.008425
      dyz     :     0.005211
      dx2y2   :     0.006646
      dxy     :     0.007663

 62 C s       :     3.182078  s :     3.182078
      pz      :     1.017266  p :     2.863191
      px      :     0.858746
      py      :     0.987180
      dz2     :     0.010215  d :     0.050283
      dxz     :     0.011613
      dyz     :     0.006520
      dx2y2   :     0.010687
      dxy     :     0.011248

 63 C s       :     3.142668  s :     3.142668
      pz      :     0.965389  p :     2.871298
      px      :     0.956580
      py      :     0.949329
      dz2     :     0.006296  d :     0.033552
      dxz     :     0.008281
      dyz     :     0.005208
      dx2y2   :     0.007537
      dxy     :     0.006231

 64 C s       :     3.191384  s :     3.191384
      pz      :     0.899065  p :     2.889320
      px      :     1.026331
      py      :     0.963924
      dz2     :     0.010472  d :     0.049104
      dxz     :     0.011648
      dyz     :     0.008522
      dx2y2   :     0.009204
      dxy     :     0.009259

 65 Cls       :     5.926074  s :     5.926074
      pz      :     3.651343  p :    11.023702
      px      :     3.519774
      py      :     3.852585
      dz2     :     0.003973  d :     0.030147
      dxz     :     0.012196
      dyz     :     0.003305
      dx2y2   :     0.004726
      dxy     :     0.005946

 66 Cls       :     5.926547  s :     5.926547
      pz      :     3.532516  p :    11.032381
      px      :     3.789512
      py      :     3.710352
      dz2     :     0.005251  d :     0.030199
      dxz     :     0.006896
      dyz     :     0.010408
      dx2y2   :     0.002441
      dxy     :     0.005202

 67 Cls       :     5.999072  s :     5.999072
      pz      :     3.997282  p :    10.999475
      px      :     3.007442
      py      :     3.994752
      dz2     :     0.000238  d :     0.000963
      dxz     :     0.000008
      dyz     :     0.000000
      dx2y2   :     0.000703
      dxy     :     0.000014

 68 Cls       :     5.927343  s :     5.927343
      pz      :     3.628636  p :    11.035850
      px      :     3.941645
      py      :     3.465569
      dz2     :     0.003871  d :     0.027944
      dxz     :     0.001354
      dyz     :     0.013656
      dx2y2   :     0.006885
      dxy     :     0.002179

 69 Cls       :     5.927213  s :     5.927213
      pz      :     3.563902  p :    11.023721
      px      :     3.561951
      py      :     3.897868
      dz2     :     0.004661  d :     0.030359
      dxz     :     0.013976
      dyz     :     0.003173
      dx2y2   :     0.004216
      dxy     :     0.004332

 70 Cls       :     5.926812  s :     5.926812
      pz      :     3.412602  p :    11.023191
      px      :     3.938447
      py      :     3.672141
      dz2     :     0.008754  d :     0.030303
      dxz     :     0.002889
      dyz     :     0.013658
      dx2y2   :     0.003476
      dxy     :     0.001527

 71 Cls       :     5.925341  s :     5.925341
      pz      :     3.932345  p :    11.041412
      px      :     3.936051
      py      :     3.173017
      dz2     :     0.004765  d :     0.029912
      dxz     :     0.000158
      dyz     :     0.005285
      dx2y2   :     0.014087
      dxy     :     0.005616

 72 Cls       :     5.925750  s :     5.925750
      pz      :     3.926636  p :    11.038124
      px      :     3.313149
      py      :     3.798340
      dz2     :     0.004680  d :     0.029911
      dxz     :     0.004783
      dyz     :     0.001002
      dx2y2   :     0.008646
      dxy     :     0.010801

 73 O s       :     3.849889  s :     3.849889
      pz      :     1.640221  p :     4.608108
      px      :     1.692294
      py      :     1.275593
      dz2     :     0.004962  d :     0.029193
      dxz     :     0.004738
      dyz     :     0.006484
      dx2y2   :     0.007104
      dxy     :     0.005905

 74 C s       :     3.180995  s :     3.180995
      pz      :     0.919314  p :     2.841913
      px      :     0.960201
      py      :     0.962398
      dz2     :     0.016237  d :     0.056685
      dxz     :     0.009030
      dyz     :     0.009527
      dx2y2   :     0.014398
      dxy     :     0.007493

 75 H s       :     0.854860  s :     0.854860
      pz      :     0.003759  p :     0.012438
      px      :     0.002124
      py      :     0.006554

 76 H s       :     0.895852  s :     0.895852
      pz      :     0.004114  p :     0.012108
      px      :     0.004998
      py      :     0.002996

 77 H s       :     0.878757  s :     0.878757
      pz      :     0.003941  p :     0.012339
      px      :     0.001937
      py      :     0.006462

 78 H s       :     0.874887  s :     0.874887
      pz      :     0.004112  p :     0.012256
      px      :     0.005334
      py      :     0.002810

 79 H s       :     0.878296  s :     0.878296
      pz      :     0.004749  p :     0.012141
      px      :     0.004031
      py      :     0.003361

 80 H s       :     0.880126  s :     0.880126
      pz      :     0.004792  p :     0.012196
      px      :     0.004025
      py      :     0.003379

 81 H s       :     0.889008  s :     0.889008
      pz      :     0.004972  p :     0.012504
      px      :     0.004351
      py      :     0.003180

 82 H s       :     0.879403  s :     0.879403
      pz      :     0.004830  p :     0.012150
      px      :     0.004015
      py      :     0.003306

 83 H s       :     0.879223  s :     0.879223
      pz      :     0.003799  p :     0.012350
      px      :     0.001939
      py      :     0.006612

 84 H s       :     0.895797  s :     0.895797
      pz      :     0.004015  p :     0.012108
      px      :     0.005004
      py      :     0.003089

 85 H s       :     0.855624  s :     0.855624
      pz      :     0.003603  p :     0.012424
      px      :     0.002130
      py      :     0.006691

 86 H s       :     0.874491  s :     0.874491
      pz      :     0.004050  p :     0.012256
      px      :     0.005320
      py      :     0.002886

 87 H s       :     0.861826  s :     0.861826
      pz      :     0.004356  p :     0.012447
      px      :     0.001863
      py      :     0.006228

 88 H s       :     0.842114  s :     0.842114
      pz      :     0.004874  p :     0.012421
      px      :     0.003553
      py      :     0.003994

 89 H s       :     0.841956  s :     0.841956
      pz      :     0.005895  p :     0.012423
      px      :     0.003986
      py      :     0.002541

 90 H s       :     0.842460  s :     0.842460
      pz      :     0.005796  p :     0.012418
      px      :     0.001780
      py      :     0.004842

 91 H s       :     0.842055  s :     0.842055
      pz      :     0.004462  p :     0.012419
      px      :     0.005465
      py      :     0.002492

 92 H s       :     0.861996  s :     0.861996
      pz      :     0.004278  p :     0.012445
      px      :     0.001862
      py      :     0.006304

 93 H s       :     0.851222  s :     0.851222
      pz      :     0.004715  p :     0.012294
      px      :     0.003586
      py      :     0.003993

 94 H s       :     0.841598  s :     0.841598
      pz      :     0.005929  p :     0.012434
      px      :     0.004008
      py      :     0.002496

 95 H s       :     0.841855  s :     0.841855
      pz      :     0.005865  p :     0.012421
      px      :     0.001786
      py      :     0.004770

 96 H s       :     0.841635  s :     0.841635
      pz      :     0.004514  p :     0.012414
      px      :     0.005436
      py      :     0.002464

 97 H s       :     0.859780  s :     0.859780
      pz      :     0.001977  p :     0.010624
      px      :     0.002048
      py      :     0.006599

 98 H s       :     0.877218  s :     0.877218
      pz      :     0.001862  p :     0.010838
      px      :     0.006992
      py      :     0.001984

 99 H s       :     0.877101  s :     0.877101
      pz      :     0.006602  p :     0.010839
      px      :     0.002276
      py      :     0.001961


SPIN
  0 C s       :    -0.003586  s :    -0.003586
      pz      :    -0.014547  p :    -0.027058
      px      :    -0.003940
      py      :    -0.008571
      dz2     :     0.000034  d :     0.000245
      dxz     :     0.000084
      dyz     :     0.000055
      dx2y2   :     0.000030
      dxy     :     0.000041

  1 C s       :     0.004973  s :     0.004973
      pz      :     0.014309  p :     0.030213
      px      :     0.006956
      py      :     0.008948
      dz2     :    -0.000078  d :    -0.000848
      dxz     :    -0.000345
      dyz     :    -0.000130
      dx2y2   :    -0.000212
      dxy     :    -0.000083

  2 C s       :    -0.003691  s :    -0.003691
      pz      :    -0.015138  p :    -0.027252
      px      :    -0.004161
      py      :    -0.007952
      dz2     :     0.000030  d :     0.000248
      dxz     :     0.000071
      dyz     :     0.000070
      dx2y2   :     0.000056
      dxy     :     0.000020

  3 C s       :     0.002619  s :     0.002619
      pz      :     0.008660  p :     0.015789
      px      :     0.002616
      py      :     0.004513
      dz2     :    -0.000073  d :    -0.000342
      dxz     :    -0.000118
      dyz     :    -0.000032
      dx2y2   :    -0.000033
      dxy     :    -0.000087

  4 C s       :    -0.003039  s :    -0.003039
      pz      :    -0.015094  p :    -0.026237
      px      :    -0.003415
      py      :    -0.007728
      dz2     :     0.000076  d :     0.000079
      dxz     :    -0.000056
      dyz     :     0.000015
      dx2y2   :     0.000019
      dxy     :     0.000025

  5 C s       :     0.002700  s :     0.002700
      pz      :     0.009258  p :     0.016619
      px      :     0.002916
      py      :     0.004445
      dz2     :    -0.000059  d :    -0.000344
      dxz     :    -0.000087
      dyz     :    -0.000067
      dx2y2   :    -0.000121
      dxy     :    -0.000010

  6 N s       :    -0.000011  s :    -0.000011
      pz      :    -0.009267  p :    -0.007933
      px      :     0.001011
      py      :     0.000323
      dz2     :     0.000027  d :    -0.000244
      dxz     :    -0.000106
      dyz     :    -0.000022
      dx2y2   :    -0.000131
      dxy     :    -0.000012

  7 C s       :    -0.003062  s :    -0.003062
      pz      :    -0.015791  p :    -0.026380
      px      :    -0.003366
      py      :    -0.007224
      dz2     :     0.000076  d :     0.000082
      dxz     :    -0.000055
      dyz     :     0.000018
      dx2y2   :     0.000018
      dxy     :     0.000024

  8 C s       :     0.000317  s :     0.000317
      pz      :     0.001063  p :     0.002259
      px      :     0.001067
      py      :     0.000128
      dz2     :    -0.000006  d :    -0.000156
      dxz     :    -0.000005
      dyz     :    -0.000140
      dx2y2   :    -0.000008
      dxy     :     0.000002

  9 C s       :    -0.000358  s :    -0.000358
      pz      :    -0.000599  p :    -0.002494
      px      :    -0.001797
      py      :    -0.000097
      dz2     :     0.000005  d :     0.000027
      dxz     :     0.000004
      dyz     :     0.000005
      dx2y2   :     0.000003
      dxy     :     0.000009

 10 C s       :     0.000267  s :     0.000267
      pz      :     0.000607  p :     0.001681
      px      :     0.000908
      py      :     0.000166
      dz2     :    -0.000006  d :    -0.000036
      dxz     :    -0.000002
      dyz     :    -0.000005
      dx2y2   :    -0.000003
      dxy     :    -0.000018

 11 C s       :    -0.000273  s :    -0.000273
      pz      :    -0.001024  p :    -0.002327
      px      :    -0.001212
      py      :    -0.000091
      dz2     :     0.000008  d :     0.000016
      dxz     :     0.000006
      dyz     :    -0.000001
      dx2y2   :     0.000003
      dxy     :    -0.000000

 12 C s       :     0.000266  s :     0.000266
      pz      :     0.000578  p :     0.001620
      px      :     0.000860
      py      :     0.000181
      dz2     :    -0.000007  d :    -0.000040
      dxz     :    -0.000002
      dyz     :    -0.000006
      dx2y2   :    -0.000003
      dxy     :    -0.000021

 13 C s       :    -0.000403  s :    -0.000403
      pz      :    -0.000702  p :    -0.002881
      px      :    -0.002079
      py      :    -0.000100
      dz2     :     0.000005  d :     0.000027
      dxz     :     0.000005
      dyz     :     0.000005
      dx2y2   :     0.000004
      dxy     :     0.000008

 14 C s       :     0.002651  s :     0.002651
      pz      :     0.009101  p :     0.015963
      px      :     0.002611
      py      :     0.004250
      dz2     :    -0.000076  d :    -0.000347
      dxz     :    -0.000128
      dyz     :    -0.000030
      dx2y2   :    -0.000030
      dxy     :    -0.000082

 15 C s       :    -0.003761  s :    -0.003761
      pz      :    -0.016130  p :    -0.027697
      px      :    -0.004140
      py      :    -0.007427
      dz2     :     0.000032  d :     0.000252
      dxz     :     0.000073
      dyz     :     0.000073
      dx2y2   :     0.000054
      dxy     :     0.000019

 16 C s       :     0.005065  s :     0.005065
      pz      :     0.014969  p :     0.030728
      px      :     0.007057
      py      :     0.008702
      dz2     :    -0.000079  d :    -0.000863
      dxz     :    -0.000353
      dyz     :    -0.000139
      dx2y2   :    -0.000212
      dxy     :    -0.000080

 17 C s       :    -0.003642  s :    -0.003642
      pz      :    -0.015328  p :    -0.026967
      px      :    -0.003878
      py      :    -0.007761
      dz2     :     0.000038  d :     0.000250
      dxz     :     0.000089
      dyz     :     0.000054
      dx2y2   :     0.000029
      dxy     :     0.000040

 18 C s       :     0.002721  s :     0.002721
      pz      :     0.009693  p :     0.016792
      px      :     0.002912
      py      :     0.004187
      dz2     :    -0.000056  d :    -0.000347
      dxz     :    -0.000090
      dyz     :    -0.000077
      dx2y2   :    -0.000115
      dxy     :    -0.000009

 19 C s       :    -0.012146  s :    -0.012146
      pz      :    -0.059075  p :    -0.099130
      px      :    -0.014222
      py      :    -0.025833
      dz2     :     0.000379  d :     0.000938
      dxz     :     0.000156
      dyz     :     0.000184
      dx2y2   :     0.000126
      dxy     :     0.000093

 20 N s       :     0.004745  s :     0.004745
      pz      :     0.029979  p :     0.053207
      px      :     0.004375
      py      :     0.018854
      dz2     :    -0.000317  d :    -0.001291
      dxz     :    -0.000309
      dyz     :    -0.000177
      dx2y2   :    -0.000430
      dxy     :    -0.000057

 21 C s       :    -0.016750  s :    -0.016750
      pz      :    -0.042942  p :    -0.101951
      px      :    -0.026936
      py      :    -0.032072
      dz2     :     0.000245  d :     0.001220
      dxz     :     0.000450
      dyz     :     0.000141
      dx2y2   :     0.000267
      dxy     :     0.000118

 22 C s       :     0.029929  s :     0.029929
      pz      :     0.078778  p :     0.149440
      px      :     0.035761
      py      :     0.034901
      dz2     :    -0.000250  d :    -0.006684
      dxz     :    -0.004062
      dyz     :    -0.002097
      dx2y2   :    -0.000185
      dxy     :    -0.000089

 23 C s       :    -0.016972  s :    -0.016972
      pz      :    -0.042857  p :    -0.105713
      px      :    -0.014594
      py      :    -0.048263
      dz2     :     0.000272  d :     0.001204
      dxz     :     0.000225
      dyz     :     0.000335
      dx2y2   :     0.000265
      dxy     :     0.000107

 24 C s       :     0.010535  s :     0.010535
      pz      :     0.036754  p :     0.069027
      px      :     0.012622
      py      :     0.019650
      dz2     :    -0.000235  d :    -0.001361
      dxz     :    -0.000376
      dyz     :    -0.000130
      dx2y2   :    -0.000345
      dxy     :    -0.000276

 25 C s       :    -0.099365  s :    -0.099365
      pz      :    -0.640579  p :    -0.724167
      px      :    -0.043125
      py      :    -0.040462
      dz2     :     0.001798  d :     0.002853
      dxz     :     0.000267
      dyz     :     0.000135
      dx2y2   :     0.000262
      dxy     :     0.000392

 26 C s       :     0.028512  s :     0.028512
      pz      :     0.050037  p :     0.132315
      px      :     0.036783
      py      :     0.045494
      dz2     :    -0.000542  d :    -0.006339
      dxz     :    -0.004358
      dyz     :    -0.001064
      dx2y2   :    -0.000118
      dxy     :    -0.000258

 27 C s       :     0.028525  s :     0.028525
      pz      :     0.046571  p :     0.133514
      px      :     0.046993
      py      :     0.039950
      dz2     :    -0.000364  d :    -0.006331
      dxz     :    -0.000182
      dyz     :    -0.005381
      dx2y2   :    -0.000190
      dxy     :    -0.000213

 28 C s       :    -0.016397  s :    -0.016397
      pz      :    -0.019987  p :    -0.099514
      px      :    -0.070409
      py      :    -0.009117
      dz2     :     0.000184  d :     0.001024
      dxz     :     0.000160
      dyz     :     0.000154
      dx2y2   :     0.000129
      dxy     :     0.000398

 29 C s       :     0.009402  s :     0.009402
      pz      :     0.018804  p :     0.061455
      px      :     0.038035
      py      :     0.004616
      dz2     :    -0.000259  d :    -0.001310
      dxz     :    -0.000142
      dyz     :    -0.000125
      dx2y2   :    -0.000149
      dxy     :    -0.000634

 30 C s       :    -0.010755  s :    -0.010755
      pz      :    -0.031809  p :    -0.089826
      px      :    -0.053675
      py      :    -0.004341
      dz2     :     0.000308  d :     0.000844
      dxz     :     0.000242
      dyz     :     0.000033
      dx2y2   :     0.000156
      dxy     :     0.000106

 31 C s       :     0.009384  s :     0.009384
      pz      :     0.018668  p :     0.061408
      px      :     0.037908
      py      :     0.004832
      dz2     :    -0.000160  d :    -0.001314
      dxz     :    -0.000106
      dyz     :    -0.000183
      dx2y2   :    -0.000094
      dxy     :    -0.000771

 32 C s       :    -0.016429  s :    -0.016429
      pz      :    -0.018955  p :    -0.099505
      px      :    -0.072898
      py      :    -0.007652
      dz2     :     0.000267  d :     0.001014
      dxz     :     0.000156
      dyz     :     0.000129
      dx2y2   :     0.000104
      dxy     :     0.000358

 33 C s       :    -0.016419  s :    -0.016419
      pz      :    -0.022074  p :    -0.098659
      px      :    -0.010251
      py      :    -0.066334
      dz2     :     0.000290  d :     0.001006
      dxz     :     0.000166
      dyz     :     0.000132
      dx2y2   :     0.000262
      dxy     :     0.000156

 34 C s       :     0.009305  s :     0.009305
      pz      :     0.020972  p :     0.060878
      px      :     0.008363
      py      :     0.031543
      dz2     :    -0.000147  d :    -0.001304
      dxz     :    -0.000210
      dyz     :    -0.000126
      dx2y2   :    -0.000268
      dxy     :    -0.000553

 35 C s       :    -0.010658  s :    -0.010658
      pz      :    -0.035664  p :    -0.088941
      px      :    -0.008669
      py      :    -0.044608
      dz2     :     0.000323  d :     0.000837
      dxz     :     0.000063
      dyz     :     0.000199
      dx2y2   :     0.000114
      dxy     :     0.000138

 36 C s       :     0.009322  s :     0.009322
      pz      :     0.021192  p :     0.060932
      px      :     0.007440
      py      :     0.032300
      dz2     :    -0.000301  d :    -0.001302
      dxz     :    -0.000175
      dyz     :    -0.000090
      dx2y2   :    -0.000531
      dxy     :    -0.000206

 37 C s       :    -0.016337  s :    -0.016337
      pz      :    -0.023641  p :    -0.098867
      px      :    -0.021157
      py      :    -0.054069
      dz2     :     0.000165  d :     0.001015
      dxz     :     0.000196
      dyz     :     0.000166
      dx2y2   :     0.000193
      dxy     :     0.000295

 38 Cls       :    -0.000162  s :    -0.000162
      pz      :    -0.001489  p :    -0.002238
      px      :     0.000297
      py      :    -0.001046
      dz2     :    -0.000217  d :    -0.000541
      dxz     :    -0.000049
      dyz     :    -0.000009
      dx2y2   :    -0.000028
      dxy     :    -0.000238

 39 Cls       :    -0.000157  s :    -0.000157
      pz      :     0.000877  p :    -0.001593
      px      :    -0.003431
      py      :     0.000961
      dz2     :    -0.000139  d :    -0.000531
      dxz     :    -0.000085
      dyz     :     0.000011
      dx2y2   :    -0.000079
      dxy     :    -0.000239

 40 Cls       :    -0.000186  s :    -0.000186
      pz      :     0.001885  p :    -0.002117
      px      :    -0.003779
      py      :    -0.000224
      dz2     :    -0.000168  d :    -0.000547
      dxz     :    -0.000144
      dyz     :     0.000017
      dx2y2   :    -0.000143
      dxy     :    -0.000109

 41 Cls       :    -0.000046  s :    -0.000046
      pz      :    -0.000591  p :    -0.004126
      px      :    -0.000271
      py      :    -0.003263
      dz2     :    -0.000224  d :    -0.000494
      dxz     :    -0.000001
      dyz     :    -0.000031
      dx2y2   :    -0.000208
      dxy     :    -0.000029

 42 Cls       :    -0.000163  s :    -0.000163
      pz      :     0.000166  p :    -0.001572
      px      :     0.000794
      py      :    -0.002532
      dz2     :    -0.000144  d :    -0.000531
      dxz     :    -0.000003
      dyz     :    -0.000049
      dx2y2   :    -0.000016
      dxy     :    -0.000318

 43 Cls       :    -0.000196  s :    -0.000196
      pz      :     0.001552  p :    -0.002021
      px      :    -0.000201
      py      :    -0.003372
      dz2     :    -0.000192  d :    -0.000546
      dxz     :    -0.000007
      dyz     :    -0.000094
      dx2y2   :    -0.000255
      dxy     :     0.000002

 44 Cls       :    -0.000239  s :    -0.000239
      pz      :    -0.002456  p :    -0.004681
      px      :    -0.006132
      py      :     0.003907
      dz2     :    -0.000004  d :    -0.000538
      dxz     :    -0.000001
      dyz     :    -0.000154
      dx2y2   :    -0.000030
      dxy     :    -0.000349

 45 Cls       :    -0.000235  s :    -0.000235
      pz      :    -0.002816  p :    -0.004559
      px      :     0.002539
      py      :    -0.004282
      dz2     :    -0.000012  d :    -0.000534
      dxz     :    -0.000166
      dyz     :    -0.000013
      dx2y2   :    -0.000166
      dxy     :    -0.000178

 46 C s       :    -0.012358  s :    -0.012358
      pz      :    -0.060916  p :    -0.100867
      px      :    -0.014593
      py      :    -0.025358
      dz2     :     0.000385  d :     0.000954
      dxz     :     0.000165
      dyz     :     0.000191
      dx2y2   :     0.000123
      dxy     :     0.000090

 47 N s       :     0.004887  s :     0.004887
      pz      :     0.030912  p :     0.054264
      px      :     0.004806
      py      :     0.018546
      dz2     :    -0.000303  d :    -0.001318
      dxz     :    -0.000320
      dyz     :    -0.000203
      dx2y2   :    -0.000435
      dxy     :    -0.000057

 48 C s       :    -0.016948  s :    -0.016948
      pz      :    -0.044248  p :    -0.102601
      px      :    -0.026853
      py      :    -0.031500
      dz2     :     0.000256  d :     0.001232
      dxz     :     0.000455
      dyz     :     0.000140
      dx2y2   :     0.000265
      dxy     :     0.000117

 49 C s       :     0.029745  s :     0.029745
      pz      :     0.079455  p :     0.149342
      px      :     0.035705
      py      :     0.034181
      dz2     :    -0.000237  d :    -0.006730
      dxz     :    -0.004152
      dyz     :    -0.002090
      dx2y2   :    -0.000163
      dxy     :    -0.000088

 50 C s       :    -0.017133  s :    -0.017133
      pz      :    -0.044806  p :    -0.107335
      px      :    -0.014963
      py      :    -0.047566
      dz2     :     0.000267  d :     0.001213
      dxz     :     0.000225
      dyz     :     0.000353
      dx2y2   :     0.000263
      dxy     :     0.000104

 51 C s       :     0.010686  s :     0.010686
      pz      :     0.037710  p :     0.070119
      px      :     0.012938
      py      :     0.019471
      dz2     :    -0.000249  d :    -0.001389
      dxz     :    -0.000386
      dyz     :    -0.000132
      dx2y2   :    -0.000347
      dxy     :    -0.000276

 52 C s       :    -0.093863  s :    -0.093863
      pz      :    -0.642507  p :    -0.717696
      px      :    -0.040370
      py      :    -0.034818
      dz2     :     0.001817  d :     0.002501
      dxz     :     0.000271
      dyz     :     0.000066
      dx2y2   :     0.000314
      dxy     :     0.000032

 53 C s       :     0.029195  s :     0.029195
      pz      :     0.049720  p :     0.135622
      px      :     0.037745
      py      :     0.048157
      dz2     :    -0.000570  d :    -0.006502
      dxz     :    -0.004441
      dyz     :    -0.001085
      dx2y2   :    -0.000118
      dxy     :    -0.000288

 54 C s       :     0.016933  s :     0.016933
      pz      :     0.019965  p :     0.059454
      px      :     0.002443
      py      :     0.037045
      dz2     :     0.001390  d :    -0.000675
      dxz     :     0.001016
      dyz     :    -0.005045
      dx2y2   :     0.001892
      dxy     :     0.000072

 55 C s       :     0.146836  s :     0.146836
      pz      :     0.459054  p :     0.773193
      px      :     0.197340
      py      :     0.116799
      dz2     :    -0.000902  d :    -0.002228
      dxz     :     0.000134
      dyz     :    -0.000836
      dx2y2   :    -0.000383
      dxy     :    -0.000241

 56 C s       :    -0.001637  s :    -0.001637
      pz      :    -0.014672  p :    -0.024266
      px      :    -0.010527
      py      :     0.000933
      dz2     :     0.000111  d :     0.005256
      dxz     :     0.000102
      dyz     :     0.003412
      dx2y2   :     0.000337
      dxy     :     0.001295

 57 C s       :     0.005179  s :     0.005179
      pz      :    -0.005778  p :    -0.032791
      px      :    -0.024594
      py      :    -0.002418
      dz2     :     0.000063  d :     0.000417
      dxz     :     0.000161
      dyz     :    -0.000064
      dx2y2   :     0.000231
      dxy     :     0.000026

 58 C s       :     0.002632  s :     0.002632
      pz      :     0.001230  p :     0.006707
      px      :     0.004069
      py      :     0.001408
      dz2     :    -0.000085  d :    -0.000879
      dxz     :    -0.000013
      dyz     :    -0.000137
      dx2y2   :    -0.000030
      dxy     :    -0.000614

 59 C s       :    -0.002117  s :    -0.002117
      pz      :    -0.004391  p :    -0.049107
      px      :    -0.048585
      py      :     0.003869
      dz2     :     0.000108  d :     0.000981
      dxz     :     0.000191
      dyz     :     0.000464
      dx2y2   :    -0.000034
      dxy     :     0.000252

 60 C s       :    -0.016922  s :    -0.016922
      pz      :    -0.022860  p :    -0.103735
      px      :    -0.011163
      py      :    -0.069713
      dz2     :     0.000303  d :     0.001065
      dxz     :     0.000173
      dyz     :     0.000137
      dx2y2   :     0.000291
      dxy     :     0.000162

 61 C s       :     0.009834  s :     0.009834
      pz      :     0.021408  p :     0.064391
      px      :     0.008957
      py      :     0.034025
      dz2     :    -0.000153  d :    -0.001378
      dxz     :    -0.000211
      dyz     :    -0.000136
      dx2y2   :    -0.000289
      dxy     :    -0.000589

 62 C s       :    -0.011219  s :    -0.011219
      pz      :    -0.036260  p :    -0.093493
      px      :    -0.009330
      py      :    -0.047904
      dz2     :     0.000336  d :     0.000885
      dxz     :     0.000066
      dyz     :     0.000213
      dx2y2   :     0.000122
      dxy     :     0.000148

 63 C s       :     0.009807  s :     0.009807
      pz      :     0.021627  p :     0.064122
      px      :     0.008105
      py      :     0.034390
      dz2     :    -0.000310  d :    -0.001375
      dxz     :    -0.000182
      dyz     :    -0.000097
      dx2y2   :    -0.000565
      dxy     :    -0.000220

 64 C s       :    -0.016839  s :    -0.016839
      pz      :    -0.023789  p :    -0.103264
      px      :    -0.021784
      py      :    -0.057691
      dz2     :     0.000169  d :     0.001051
      dxz     :     0.000188
      dyz     :     0.000180
      dx2y2   :     0.000195
      dxy     :     0.000319

 65 Cls       :    -0.000160  s :    -0.000160
      pz      :    -0.001495  p :    -0.002232
      px      :     0.000204
      py      :    -0.000941
      dz2     :    -0.000227  d :    -0.000560
      dxz     :    -0.000050
      dyz     :    -0.000008
      dx2y2   :    -0.000030
      dxy     :    -0.000245

 66 Cls       :    -0.000806  s :    -0.000806
      pz      :     0.014816  p :     0.017515
      px      :     0.003000
      py      :    -0.000300
      dz2     :    -0.000066  d :    -0.000419
      dxz     :    -0.000100
      dyz     :    -0.000007
      dx2y2   :    -0.000030
      dxy     :    -0.000215

 67 Cls       :    -0.000751  s :    -0.000751
      pz      :     0.002698  p :     0.999879
      px      :     0.992482
      py      :     0.004699
      dz2     :     0.000189  d :     0.000758
      dxz     :     0.000006
      dyz     :     0.000000
      dx2y2   :     0.000553
      dxy     :     0.000010

 68 Cls       :    -0.000015  s :    -0.000015
      pz      :    -0.000651  p :    -0.004097
      px      :    -0.000221
      py      :    -0.003225
      dz2     :    -0.000225  d :    -0.000505
      dxz     :    -0.000005
      dyz     :    -0.000037
      dx2y2   :    -0.000208
      dxy     :    -0.000029

 69 Cls       :    -0.000162  s :    -0.000162
      pz      :     0.000351  p :    -0.001695
      px      :     0.000701
      py      :    -0.002748
      dz2     :    -0.000152  d :    -0.000570
      dxz     :    -0.000003
      dyz     :    -0.000057
      dx2y2   :    -0.000019
      dxy     :    -0.000339

 70 Cls       :    -0.000251  s :    -0.000251
      pz      :     0.001809  p :    -0.002468
      px      :    -0.000463
      py      :    -0.003815
      dz2     :    -0.000200  d :    -0.000582
      dxz     :    -0.000016
      dyz     :    -0.000108
      dx2y2   :    -0.000258
      dxy     :    -0.000000

 71 Cls       :    -0.000751  s :    -0.000751
      pz      :     0.000957  p :     0.010114
      px      :    -0.003394
      py      :     0.012551
      dz2     :    -0.000025  d :    -0.000374
      dxz     :    -0.000001
      dyz     :    -0.000049
      dx2y2   :    -0.000095
      dxy     :    -0.000204

 72 Cls       :    -0.000244  s :    -0.000244
      pz      :    -0.002810  p :    -0.004689
      px      :     0.002653
      py      :    -0.004532
      dz2     :    -0.000012  d :    -0.000566
      dxz     :    -0.000170
      dyz     :    -0.000012
      dx2y2   :    -0.000181
      dxy     :    -0.000191

 73 O s       :    -0.000009  s :    -0.000009
      pz      :    -0.000165  p :    -0.000355
      px      :    -0.000236
      py      :     0.000046
      dz2     :     0.000000  d :    -0.000004
      dxz     :     0.000000
      dyz     :    -0.000002
      dx2y2   :     0.000000
      dxy     :    -0.000002

 74 C s       :     0.000007  s :     0.000007
      pz      :     0.000015  p :     0.000038
      px      :     0.000016
      py      :     0.000006
      dz2     :    -0.000003  d :    -0.000004
      dxz     :    -0.000000
      dyz     :    -0.000000
      dx2y2   :    -0.000001
      dxy     :    -0.000000

 75 H s       :     0.001195  s :     0.001195
      pz      :    -0.000043  p :    -0.000067
      px      :    -0.000010
      py      :    -0.000015

 76 H s       :     0.001385  s :     0.001385
      pz      :    -0.000050  p :    -0.000074
      px      :    -0.000007
      py      :    -0.000018

 77 H s       :    -0.000669  s :    -0.000669
      pz      :     0.000024  p :     0.000039
      px      :     0.000004
      py      :     0.000012

 78 H s       :    -0.000703  s :    -0.000703
      pz      :     0.000024  p :     0.000041
      px      :     0.000005
      py      :     0.000011

 79 H s       :     0.000139  s :     0.000139
      pz      :    -0.000002  p :    -0.000007
      px      :    -0.000003
      py      :    -0.000002

 80 H s       :    -0.000093  s :    -0.000093
      pz      :     0.000002  p :     0.000004
      px      :     0.000003
      py      :     0.000000

 81 H s       :    -0.000087  s :    -0.000087
      pz      :     0.000002  p :     0.000004
      px      :     0.000003
      py      :     0.000000

 82 H s       :     0.000160  s :     0.000160
      pz      :    -0.000003  p :    -0.000008
      px      :    -0.000004
      py      :    -0.000001

 83 H s       :    -0.000676  s :    -0.000676
      pz      :     0.000025  p :     0.000040
      px      :     0.000004
      py      :     0.000011

 84 H s       :     0.001410  s :     0.001410
      pz      :    -0.000053  p :    -0.000076
      px      :    -0.000006
      py      :    -0.000016

 85 H s       :     0.000947  s :     0.000947
      pz      :    -0.000045  p :    -0.000069
      px      :    -0.000010
      py      :    -0.000014

 86 H s       :    -0.000717  s :    -0.000717
      pz      :     0.000026  p :     0.000041
      px      :     0.000005
      py      :     0.000010

 87 H s       :    -0.003878  s :    -0.003878
      pz      :     0.000103  p :     0.000187
      px      :     0.000026
      py      :     0.000058

 88 H s       :    -0.003270  s :    -0.003270
      pz      :     0.000044  p :     0.000162
      px      :     0.000112
      py      :     0.000006

 89 H s       :    -0.003328  s :    -0.003328
      pz      :     0.000047  p :     0.000163
      px      :     0.000111
      py      :     0.000004

 90 H s       :    -0.003300  s :    -0.003300
      pz      :     0.000055  p :     0.000161
      px      :     0.000015
      py      :     0.000091

 91 H s       :    -0.003263  s :    -0.003263
      pz      :     0.000052  p :     0.000161
      px      :     0.000016
      py      :     0.000094

 92 H s       :    -0.003935  s :    -0.003935
      pz      :     0.000106  p :     0.000190
      px      :     0.000026
      py      :     0.000057

 93 H s       :     0.016279  s :     0.016279
      pz      :    -0.000014  p :    -0.000012
      px      :    -0.000005
      py      :     0.000007

 94 H s       :    -0.001108  s :    -0.001108
      pz      :    -0.000001  p :     0.000008
      px      :     0.000004
      py      :     0.000004

 95 H s       :    -0.003459  s :    -0.003459
      pz      :     0.000057  p :     0.000171
      px      :     0.000017
      py      :     0.000098

 96 H s       :    -0.003413  s :    -0.003413
      pz      :     0.000053  p :     0.000170
      px      :     0.000017
      py      :     0.000100

 97 H s       :     0.000001  s :     0.000001
      pz      :     0.000000  p :     0.000000
      px      :     0.000000
      py      :    -0.000000

 98 H s       :    -0.000038  s :    -0.000038
      pz      :     0.000000  p :     0.000000
      px      :     0.000000
      py      :     0.000000

 99 H s       :    -0.000036  s :    -0.000036
      pz      :     0.000000  p :     0.000000
      px      :     0.000000
      py      :     0.000000



                     *******************************
                     * LOEWDIN POPULATION ANALYSIS *
                     *******************************

-------------------------------------------
LOEWDIN ATOMIC CHARGES AND SPIN POPULATIONS
-------------------------------------------
   0 C :   -0.038322   -0.022998
   1 C :   -0.047513    0.019249
   2 C :   -0.056253   -0.023044
   3 C :   -0.091703    0.011550
   4 C :    0.046025   -0.021918
   5 C :   -0.091506    0.012335
   6 N :   -0.041488   -0.010352
   7 C :    0.045336   -0.022022
   8 C :    0.003249    0.001297
   9 C :   -0.067165   -0.002112
  10 C :   -0.090026    0.001277
  11 C :    0.079147   -0.001946
  12 C :   -0.123952    0.001191
  13 C :   -0.067486   -0.002472
  14 C :   -0.092515    0.011672
  15 C :   -0.056019   -0.023424
  16 C :   -0.047038    0.019592
  17 C :   -0.037903   -0.023111
  18 C :   -0.091305    0.012481
  19 C :    0.058274   -0.083587
  20 N :   -0.114273    0.040459
  21 C :   -0.016354   -0.093131
  22 C :   -0.062570    0.085632
  23 C :   -0.042605   -0.093187
  24 C :   -0.098493    0.053241
  25 C :    0.018291   -0.655313
  26 C :   -0.040020    0.073333
  27 C :   -0.039133    0.074075
  28 C :   -0.058685   -0.088791
  29 C :   -0.082628    0.046971
  30 C :   -0.069858   -0.077627
  31 C :   -0.082530    0.046899
  32 C :   -0.058236   -0.088942
  33 C :   -0.059214   -0.088287
  34 C :   -0.083311    0.046478
  35 C :   -0.070438   -0.076853
  36 C :   -0.083289    0.046561
  37 C :   -0.059655   -0.088409
  38 Cl:    0.064449   -0.004627
  39 Cl:    0.058505   -0.003966
  40 Cl:    0.060936   -0.004616
  41 Cl:    0.047752   -0.006288
  42 Cl:    0.061278   -0.003933
  43 Cl:    0.060738   -0.004494
  44 Cl:    0.056716   -0.007331
  45 Cl:    0.055881   -0.007187
  46 C :    0.057463   -0.085054
  47 N :   -0.114768    0.041325
  48 C :   -0.016883   -0.093829
  49 C :   -0.062583    0.085122
  50 C :   -0.043375   -0.094636
  51 C :   -0.098089    0.054037
  52 C :    0.018781   -0.648658
  53 C :   -0.039871    0.075197
  54 C :   -0.050366    0.056921
  55 C :    0.058523    0.848219
  56 C :   -0.101490    0.018767
  57 C :   -0.069332   -0.021302
  58 C :   -0.085042    0.001183
  59 C :   -0.060702   -0.038286
  60 C :   -0.063070   -0.092708
  61 C :   -0.083918    0.049233
  62 C :   -0.071184   -0.080743
  63 C :   -0.084066    0.048950
  64 C :   -0.058922   -0.092336
  65 Cl:    0.063578   -0.004680
  66 Cl:    0.054981    0.012954
  67 Cl:    0.000135    0.999902
  68 Cl:    0.044285   -0.006157
  69 Cl:    0.060810   -0.004186
  70 Cl:    0.062850   -0.005116
  71 Cl:    0.053864    0.005302
  72 Cl:    0.056177   -0.007458
  73 O :   -0.161248   -0.000458
  74 C :   -0.046233    0.000012
  75 H :    0.093330    0.000308
  76 H :    0.075953    0.000357
  77 H :    0.084680   -0.000147
  78 H :    0.085624   -0.000169
  79 H :    0.085898    0.000034
  80 H :    0.086278   -0.000032
  81 H :    0.079929   -0.000029
  82 H :    0.084947    0.000038
  83 H :    0.084456   -0.000149
  84 H :    0.076000    0.000361
  85 H :    0.093103    0.000251
  86 H :    0.085758   -0.000173
  87 H :    0.091823   -0.001238
  88 H :    0.102366   -0.001110
  89 H :    0.102442   -0.001152
  90 H :    0.102170   -0.001144
  91 H :    0.102330   -0.001115
  92 H :    0.091754   -0.001250
  93 H :    0.098603    0.013595
  94 H :    0.101991   -0.000694
  95 H :    0.102366   -0.001178
  96 H :    0.102445   -0.001158
  97 H :    0.081426    0.000001
  98 H :    0.064450   -0.000024
  99 H :    0.064482   -0.000024

----------------------------------------------------
LOEWDIN REDUCED ORBITAL CHARGES AND SPIN POPULATIONS
----------------------------------------------------
CHARGE
  0 C s       :     2.891402  s :     2.891402
      pz      :     0.986019  p :     3.063078
      px      :     1.041373
      py      :     1.035687
      dz2     :     0.008937  d :     0.083842
      dxz     :     0.018463
      dyz     :     0.010169
      dx2y2   :     0.023735
      dxy     :     0.022538

  1 C s       :     2.861387  s :     2.861387
      pz      :     1.033389  p :     3.086796
      px      :     1.018958
      py      :     1.034450
      dz2     :     0.013966  d :     0.099330
      dxz     :     0.016781
      dyz     :     0.015373
      dx2y2   :     0.025708
      dxy     :     0.027502

  2 C s       :     2.888393  s :     2.888393
      pz      :     0.999449  p :     3.083094
      px      :     1.053089
      py      :     1.030555
      dz2     :     0.008503  d :     0.084767
      dxz     :     0.016123
      dyz     :     0.013195
      dx2y2   :     0.023702
      dxy     :     0.023244

  3 C s       :     2.889247  s :     2.889247
      pz      :     1.015350  p :     3.121022
      px      :     1.051764
      py      :     1.053909
      dz2     :     0.008442  d :     0.081433
      dxz     :     0.018588
      dyz     :     0.009933
      dx2y2   :     0.023053
      dxy     :     0.021417

  4 C s       :     2.851153  s :     2.851153
      pz      :     0.992053  p :     2.963510
      px      :     0.953905
      py      :     1.017551
      dz2     :     0.017519  d :     0.139313
      dxz     :     0.034029
      dyz     :     0.020103
      dx2y2   :     0.030989
      dxy     :     0.036672

  5 C s       :     2.890127  s :     2.890127
      pz      :     1.013979  p :     3.119701
      px      :     1.062678
      py      :     1.043044
      dz2     :     0.008122  d :     0.081679
      dxz     :     0.015481
      dyz     :     0.013424
      dx2y2   :     0.023304
      dxy     :     0.021347

  6 N s       :     3.043100  s :     3.043100
      pz      :     1.617081  p :     3.901925
      px      :     1.141924
      py      :     1.142920
      dz2     :     0.005177  d :     0.096463
      dxz     :     0.011628
      dyz     :     0.010794
      dx2y2   :     0.034152
      dxy     :     0.034712

  7 C s       :     2.851018  s :     2.851018
      pz      :     0.988969  p :     2.964368
      px      :     0.953756
      py      :     1.021643
      dz2     :     0.016890  d :     0.139278
      dxz     :     0.033425
      dyz     :     0.019895
      dx2y2   :     0.031757
      dxy     :     0.037311

  8 C s       :     2.847179  s :     2.847179
      pz      :     1.049909  p :     3.013630
      px      :     1.048044
      py      :     0.915677
      dz2     :     0.022997  d :     0.135941
      dxz     :     0.013831
      dyz     :     0.044176
      dx2y2   :     0.033197
      dxy     :     0.021741

  9 C s       :     2.893256  s :     2.893256
      pz      :     1.014630  p :     3.090128
      px      :     1.013401
      py      :     1.062096
      dz2     :     0.012207  d :     0.083781
      dxz     :     0.009387
      dyz     :     0.024616
      dx2y2   :     0.017071
      dxy     :     0.020500

 10 C s       :     2.891274  s :     2.891274
      pz      :     1.034212  p :     3.118391
      px      :     1.026672
      py      :     1.057507
      dz2     :     0.011006  d :     0.080361
      dxz     :     0.009214
      dyz     :     0.023534
      dx2y2   :     0.016453
      dxy     :     0.020154

 11 C s       :     2.847874  s :     2.847874
      pz      :     1.030373  p :     2.904039
      px      :     1.002204
      py      :     0.871462
      dz2     :     0.026441  d :     0.168940
      dxz     :     0.013288
      dyz     :     0.045509
      dx2y2   :     0.042085
      dxy     :     0.041615

 12 C s       :     2.888544  s :     2.888544
      pz      :     1.048732  p :     3.154554
      px      :     1.048162
      py      :     1.057660
      dz2     :     0.011355  d :     0.080855
      dxz     :     0.009738
      dyz     :     0.023260
      dx2y2   :     0.016547
      dxy     :     0.019955

 13 C s       :     2.892378  s :     2.892378
      pz      :     1.017228  p :     3.091088
      px      :     1.016864
      py      :     1.056996
      dz2     :     0.012195  d :     0.084020
      dxz     :     0.009436
      dyz     :     0.024529
      dx2y2   :     0.017339
      dxy     :     0.020521

 14 C s       :     2.889133  s :     2.889133
      pz      :     1.014889  p :     3.121963
      px      :     1.051902
      py      :     1.055172
      dz2     :     0.008199  d :     0.081419
      dxz     :     0.018168
      dyz     :     0.009590
      dx2y2   :     0.023550
      dxy     :     0.021912

 15 C s       :     2.888362  s :     2.888362
      pz      :     0.996733  p :     3.082892
      px      :     1.053242
      py      :     1.032917
      dz2     :     0.008023  d :     0.084765
      dxz     :     0.015452
      dyz     :     0.013219
      dx2y2   :     0.024061
      dxy     :     0.024010

 16 C s       :     2.861412  s :     2.861412
      pz      :     1.031268  p :     3.086281
      px      :     1.019009
      py      :     1.036004
      dz2     :     0.013335  d :     0.099344
      dxz     :     0.016164
      dyz     :     0.015307
      dx2y2   :     0.026419
      dxy     :     0.028120

 17 C s       :     2.891354  s :     2.891354
      pz      :     0.981779  p :     3.062715
      px      :     1.041596
      py      :     1.039340
      dz2     :     0.008675  d :     0.083834
      dxz     :     0.018146
      dyz     :     0.009859
      dx2y2   :     0.024213
      dxy     :     0.022941

 18 C s       :     2.890050  s :     2.890050
      pz      :     1.013300  p :     3.119577
      px      :     1.063104
      py      :     1.043173
      dz2     :     0.007743  d :     0.081677
      dxz     :     0.014919
      dyz     :     0.013243
      dx2y2   :     0.023819
      dxy     :     0.021953

 19 C s       :     2.855069  s :     2.855069
      pz      :     0.942629  p :     2.940705
      px      :     1.032583
      py      :     0.965493
      dz2     :     0.019501  d :     0.145952
      dxz     :     0.025427
      dyz     :     0.026120
      dx2y2   :     0.034241
      dxy     :     0.040663

 20 N s       :     3.207925  s :     3.207925
      pz      :     1.265405  p :     3.820048
      px      :     1.393999
      py      :     1.160644
      dz2     :     0.012447  d :     0.086300
      dxz     :     0.011305
      dyz     :     0.017405
      dx2y2   :     0.023533
      dxy     :     0.021611

 21 C s       :     2.893904  s :     2.893904
      pz      :     0.960011  p :     2.961273
      px      :     1.053943
      py      :     0.947319
      dz2     :     0.019795  d :     0.161177
      dxz     :     0.031240
      dyz     :     0.024879
      dx2y2   :     0.048312
      dxy     :     0.036950

 22 C s       :     2.870099  s :     2.870099
      pz      :     1.037940  p :     3.089542
      px      :     1.024667
      py      :     1.026936
      dz2     :     0.011724  d :     0.102929
      dxz     :     0.022610
      dyz     :     0.017660
      dx2y2   :     0.027333
      dxy     :     0.023603

 23 C s       :     2.911037  s :     2.911037
      pz      :     0.975100  p :     3.015831
      px      :     0.992979
      py      :     1.047752
      dz2     :     0.016272  d :     0.115737
      dxz     :     0.024194
      dyz     :     0.017956
      dx2y2   :     0.029462
      dxy     :     0.027852

 24 C s       :     2.891588  s :     2.891588
      pz      :     1.034553  p :     3.125458
      px      :     1.042431
      py      :     1.048473
      dz2     :     0.008793  d :     0.081448
      dxz     :     0.016550
      dyz     :     0.011231
      dx2y2   :     0.022103
      dxy     :     0.022772

 25 C s       :     2.876524  s :     2.876524
      pz      :     0.972114  p :     3.013342
      px      :     1.020731
      py      :     1.020497
      dz2     :     0.006861  d :     0.091843
      dxz     :     0.009893
      dyz     :     0.008738
      dx2y2   :     0.032493
      dxy     :     0.033859

 26 C s       :     2.867119  s :     2.867119
      pz      :     1.032863  p :     3.070023
      px      :     1.023818
      py      :     1.013343
      dz2     :     0.017625  d :     0.102877
      dxz     :     0.028926
      dyz     :     0.016598
      dx2y2   :     0.020359
      dxy     :     0.019369

 27 C s       :     2.866694  s :     2.866694
      pz      :     1.034769  p :     3.069551
      px      :     1.011162
      py      :     1.023620
      dz2     :     0.018475  d :     0.102888
      dxz     :     0.013933
      dyz     :     0.033242
      dx2y2   :     0.019041
      dxy     :     0.018197

 28 C s       :     2.908605  s :     2.908605
      pz      :     0.964976  p :     3.036815
      px      :     0.996847
      py      :     1.074992
      dz2     :     0.024209  d :     0.113266
      dxz     :     0.015963
      dyz     :     0.031266
      dx2y2   :     0.020209
      dxy     :     0.021618

 29 C s       :     2.892107  s :     2.892107
      pz      :     1.040335  p :     3.107115
      px      :     1.016064
      py      :     1.050717
      dz2     :     0.015488  d :     0.083406
      dxz     :     0.010803
      dyz     :     0.023277
      dx2y2   :     0.017281
      dxy     :     0.016556

 30 C s       :     2.904204  s :     2.904204
      pz      :     1.073894  p :     3.048863
      px      :     1.038019
      py      :     0.936950
      dz2     :     0.024384  d :     0.116790
      dxz     :     0.014389
      dyz     :     0.030581
      dx2y2   :     0.025857
      dxy     :     0.021579

 31 C s       :     2.892041  s :     2.892041
      pz      :     1.044985  p :     3.107072
      px      :     1.017554
      py      :     1.044532
      dz2     :     0.014168  d :     0.083417
      dxz     :     0.009151
      dyz     :     0.023769
      dx2y2   :     0.018178
      dxy     :     0.018150

 32 C s       :     2.908835  s :     2.908835
      pz      :     0.988831  p :     3.036269
      px      :     1.005521
      py      :     1.041917
      dz2     :     0.023127  d :     0.113131
      dxz     :     0.015372
      dyz     :     0.032643
      dx2y2   :     0.020232
      dxy     :     0.021756

 33 C s       :     2.908998  s :     2.908998
      pz      :     0.996316  p :     3.037011
      px      :     1.003549
      py      :     1.037146
      dz2     :     0.021675  d :     0.113206
      dxz     :     0.030545
      dyz     :     0.016288
      dx2y2   :     0.022796
      dxy     :     0.021901

 34 C s       :     2.892151  s :     2.892151
      pz      :     1.041862  p :     3.107735
      px      :     1.038733
      py      :     1.027140
      dz2     :     0.012940  d :     0.083426
      dxz     :     0.022354
      dyz     :     0.009835
      dx2y2   :     0.018747
      dxy     :     0.019549

 35 C s       :     2.904255  s :     2.904255
      pz      :     1.066886  p :     3.049411
      px      :     0.962222
      py      :     1.020303
      dz2     :     0.023071  d :     0.116771
      dxz     :     0.027756
      dyz     :     0.015848
      dx2y2   :     0.024609
      dxy     :     0.025487

 36 C s       :     2.892152  s :     2.892152
      pz      :     1.036171  p :     3.107716
      px      :     1.053667
      py      :     1.017878
      dz2     :     0.014679  d :     0.083421
      dxz     :     0.019881
      dyz     :     0.013634
      dx2y2   :     0.018439
      dxy     :     0.016788

 37 C s       :     2.908785  s :     2.908785
      pz      :     0.966028  p :     3.037550
      px      :     1.085603
      py      :     0.985920
      dz2     :     0.022769  d :     0.113319
      dxz     :     0.027891
      dyz     :     0.018275
      dx2y2   :     0.022138
      dxy     :     0.022247

 38 Cls       :     5.795896  s :     5.795896
      pz      :     3.681427  p :    11.105830
      px      :     3.559351
      py      :     3.865051
      dz2     :     0.004140  d :     0.033826
      dxz     :     0.014203
      dyz     :     0.003494
      dx2y2   :     0.005439
      dxy     :     0.006551

 39 Cls       :     5.796966  s :     5.796966
      pz      :     3.568093  p :    11.110674
      px      :     3.804573
      py      :     3.738007
      dz2     :     0.005968  d :     0.033855
      dxz     :     0.007838
      dyz     :     0.011987
      dx2y2   :     0.002393
      dxy     :     0.005669

 40 Cls       :     5.796551  s :     5.796551
      pz      :     3.465721  p :    11.108586
      px      :     3.768953
      py      :     3.873912
      dz2     :     0.010089  d :     0.033927
      dxz     :     0.012023
      dyz     :     0.006646
      dx2y2   :     0.002263
      dxy     :     0.002906

 41 Cls       :     5.804966  s :     5.804966
      pz      :     3.648841  p :    11.115739
      px      :     3.937586
      py      :     3.529311
      dz2     :     0.004277  d :     0.031543
      dxz     :     0.001451
      dyz     :     0.016063
      dx2y2   :     0.007559
      dxy     :     0.002193

 42 Cls       :     5.797025  s :     5.797025
      pz      :     3.615008  p :    11.107700
      px      :     3.599088
      py      :     3.893603
      dz2     :     0.004885  d :     0.033998
      dxz     :     0.016033
      dyz     :     0.003443
      dx2y2   :     0.004670
      dxy     :     0.004967

 43 Cls       :     5.796670  s :     5.796670
      pz      :     3.484947  p :    11.108641
      px      :     3.935352
      py      :     3.688342
      dz2     :     0.009468  d :     0.033951
      dxz     :     0.002903
      dyz     :     0.015867
      dx2y2   :     0.004139
      dxy     :     0.001575

 44 Cls       :     5.794948  s :     5.794948
      pz      :     3.929155  p :    11.114924
      px      :     3.927678
      py      :     3.258091
      dz2     :     0.005604  d :     0.033412
      dxz     :     0.000139
      dyz     :     0.005363
      dx2y2   :     0.016361
      dxy     :     0.005947

 45 Cls       :     5.795084  s :     5.795084
      pz      :     3.921493  p :    11.115655
      px      :     3.385242
      py      :     3.808920
      dz2     :     0.005386  d :     0.033380
      dxz     :     0.005148
      dyz     :     0.001022
      dx2y2   :     0.009621
      dxy     :     0.012203

 46 C s       :     2.854920  s :     2.854920
      pz      :     0.942857  p :     2.941720
      px      :     1.031951
      py      :     0.966912
      dz2     :     0.019123  d :     0.145897
      dxz     :     0.024811
      dyz     :     0.026193
      dx2y2   :     0.034669
      dxy     :     0.041100

 47 N s       :     3.207848  s :     3.207848
      pz      :     1.265911  p :     3.820580
      px      :     1.391311
      py      :     1.163358
      dz2     :     0.012183  d :     0.086340
      dxz     :     0.011227
      dyz     :     0.017410
      dx2y2   :     0.023911
      dxy     :     0.021609

 48 C s       :     2.893803  s :     2.893803
      pz      :     0.961473  p :     2.961950
      px      :     1.054222
      py      :     0.946256
      dz2     :     0.019421  d :     0.161130
      dxz     :     0.031015
      dyz     :     0.024677
      dx2y2   :     0.048769
      dxy     :     0.037249

 49 C s       :     2.870351  s :     2.870351
      pz      :     1.037074  p :     3.089183
      px      :     1.025194
      py      :     1.026915
      dz2     :     0.011507  d :     0.103049
      dxz     :     0.022572
      dyz     :     0.017530
      dx2y2   :     0.027618
      dxy     :     0.023821

 50 C s       :     2.911041  s :     2.911041
      pz      :     0.974708  p :     3.016636
      px      :     0.993731
      py      :     1.048196
      dz2     :     0.016022  d :     0.115698
      dxz     :     0.023864
      dyz     :     0.018069
      dx2y2   :     0.029596
      dxy     :     0.028147

 51 C s       :     2.891604  s :     2.891604
      pz      :     1.033671  p :     3.124994
      px      :     1.042312
      py      :     1.049010
      dz2     :     0.008715  d :     0.081491
      dxz     :     0.016415
      dyz     :     0.011243
      dx2y2   :     0.022265
      dxy     :     0.022852

 52 C s       :     2.878096  s :     2.878096
      pz      :     0.969967  p :     3.011419
      px      :     1.018185
      py      :     1.023267
      dz2     :     0.006760  d :     0.091705
      dxz     :     0.009923
      dyz     :     0.008885
      dx2y2   :     0.032193
      dxy     :     0.033943

 53 C s       :     2.866916  s :     2.866916
      pz      :     1.032396  p :     3.070101
      px      :     1.024809
      py      :     1.012896
      dz2     :     0.017926  d :     0.102854
      dxz     :     0.029434
      dyz     :     0.016505
      dx2y2   :     0.019958
      dxy     :     0.019031

 54 C s       :     2.872132  s :     2.872132
      pz      :     1.033215  p :     3.073026
      px      :     1.012340
      py      :     1.027472
      dz2     :     0.020041  d :     0.105208
      dxz     :     0.014837
      dyz     :     0.031635
      dx2y2   :     0.021077
      dxy     :     0.017617

 55 C s       :     3.006728  s :     3.006728
      pz      :     0.907240  p :     2.864746
      px      :     0.930744
      py      :     1.026761
      dz2     :     0.010695  d :     0.070004
      dxz     :     0.005877
      dyz     :     0.020843
      dx2y2   :     0.015715
      dxy     :     0.016873

 56 C s       :     2.894841  s :     2.894841
      pz      :     1.034563  p :     3.121569
      px      :     1.018577
      py      :     1.068429
      dz2     :     0.014932  d :     0.085080
      dxz     :     0.010543
      dyz     :     0.025955
      dx2y2   :     0.016406
      dxy     :     0.017244

 57 C s       :     2.906320  s :     2.906320
      pz      :     1.070720  p :     3.045442
      px      :     1.039223
      py      :     0.935499
      dz2     :     0.024458  d :     0.117570
      dxz     :     0.014470
      dyz     :     0.030769
      dx2y2   :     0.026090
      dxy     :     0.021782

 58 C s       :     2.892352  s :     2.892352
      pz      :     1.045341  p :     3.109544
      px      :     1.019931
      py      :     1.044272
      dz2     :     0.013907  d :     0.083146
      dxz     :     0.009050
      dyz     :     0.023611
      dx2y2   :     0.018237
      dxy     :     0.018340

 59 C s       :     2.911685  s :     2.911685
      pz      :     0.988559  p :     3.035328
      px      :     1.005993
      py      :     1.040776
      dz2     :     0.022989  d :     0.113690
      dxz     :     0.015678
      dyz     :     0.032724
      dx2y2   :     0.020437
      dxy     :     0.021861

 60 C s       :     2.909492  s :     2.909492
      pz      :     0.997274  p :     3.040332
      px      :     1.004448
      py      :     1.038611
      dz2     :     0.022071  d :     0.113246
      dxz     :     0.030898
      dyz     :     0.016226
      dx2y2   :     0.022517
      dxy     :     0.021533

 61 C s       :     2.892212  s :     2.892212
      pz      :     1.043252  p :     3.108256
      px      :     1.038641
      py      :     1.026363
      dz2     :     0.013237  d :     0.083451
      dxz     :     0.022519
      dyz     :     0.009842
      dx2y2   :     0.018518
      dxy     :     0.019335

 62 C s       :     2.904276  s :     2.904276
      pz      :     1.068510  p :     3.050106
      px      :     0.962305
      py      :     1.019291
      dz2     :     0.023416  d :     0.116802
      dxz     :     0.028082
      dyz     :     0.015945
      dx2y2   :     0.024237
      dxy     :     0.025121

 63 C s       :     2.892341  s :     2.892341
      pz      :     1.037140  p :     3.108272
      px      :     1.053748
      py      :     1.017384
      dz2     :     0.014993  d :     0.083453
      dxz     :     0.020116
      dyz     :     0.013632
      dx2y2   :     0.018207
      dxy     :     0.016506

 64 C s       :     2.909075  s :     2.909075
      pz      :     0.964922  p :     3.036574
      px      :     1.085212
      py      :     0.986440
      dz2     :     0.023215  d :     0.113272
      dxz     :     0.028148
      dyz     :     0.018255
      dx2y2   :     0.021797
      dxy     :     0.021858

 65 Cls       :     5.795831  s :     5.795831
      pz      :     3.681548  p :    11.106784
      px      :     3.564808
      py      :     3.860428
      dz2     :     0.004175  d :     0.033807
      dxz     :     0.014007
      dyz     :     0.003646
      dx2y2   :     0.005259
      dxy     :     0.006720

 66 Cls       :     5.797303  s :     5.797303
      pz      :     3.580397  p :    11.113845
      px      :     3.801629
      py      :     3.731818
      dz2     :     0.005714  d :     0.033872
      dxz     :     0.007803
      dyz     :     0.011960
      dx2y2   :     0.002492
      dxy     :     0.005903

 67 Cls       :     5.999065  s :     5.999065
      pz      :     3.997292  p :    10.999837
      px      :     3.007471
      py      :     3.995074
      dz2     :     0.000238  d :     0.000963
      dxz     :     0.000008
      dyz     :     0.000000
      dx2y2   :     0.000703
      dxy     :     0.000014

 68 Cls       :     5.805030  s :     5.805030
      pz      :     3.660635  p :    11.119235
      px      :     3.939195
      py      :     3.519405
      dz2     :     0.004096  d :     0.031449
      dxz     :     0.001365
      dyz     :     0.015861
      dx2y2   :     0.007898
      dxy     :     0.002229

 69 Cls       :     5.796956  s :     5.796956
      pz      :     3.608297  p :    11.108168
      px      :     3.602168
      py      :     3.897704
      dz2     :     0.005010  d :     0.034066
      dxz     :     0.016209
      dyz     :     0.003388
      dx2y2   :     0.004646
      dxy     :     0.004812

 70 Cls       :     5.796798  s :     5.796798
      pz      :     3.474359  p :    11.106396
      px      :     3.935082
      py      :     3.696955
      dz2     :     0.009782  d :     0.033956
      dxz     :     0.002978
      dyz     :     0.015734
      dx2y2   :     0.003931
      dxy     :     0.001530

 71 Cls       :     5.795192  s :     5.795192
      pz      :     3.926574  p :    11.117500
      px      :     3.928356
      py      :     3.262570
      dz2     :     0.005510  d :     0.033444
      dxz     :     0.000156
      dyz     :     0.005601
      dx2y2   :     0.016234
      dxy     :     0.005942

 72 Cls       :     5.795109  s :     5.795109
      pz      :     3.921501  p :    11.115315
      px      :     3.385533
      py      :     3.808282
      dz2     :     0.005388  d :     0.033399
      dxz     :     0.005127
      dyz     :     0.001025
      dx2y2   :     0.009624
      dxy     :     0.012235

 73 O s       :     3.446626  s :     3.446626
      pz      :     1.647350  p :     4.647061
      px      :     1.690667
      py      :     1.309045
      dz2     :     0.010818  d :     0.067561
      dxz     :     0.007951
      dyz     :     0.016289
      dx2y2   :     0.017884
      dxy     :     0.014619

 74 C s       :     2.906786  s :     2.906786
      pz      :     0.991276  p :     3.024132
      px      :     1.024488
      py      :     1.008368
      dz2     :     0.034429  d :     0.115316
      dxz     :     0.018430
      dyz     :     0.018703
      dx2y2   :     0.029317
      dxy     :     0.014436

 75 H s       :     0.863713  s :     0.863713
      pz      :     0.012790  p :     0.042957
      px      :     0.007091
      py      :     0.023076

 76 H s       :     0.883633  s :     0.883633
      pz      :     0.013428  p :     0.040413
      px      :     0.017166
      py      :     0.009820

 77 H s       :     0.873865  s :     0.873865
      pz      :     0.013135  p :     0.041455
      px      :     0.006400
      py      :     0.021920

 78 H s       :     0.873017  s :     0.873017
      pz      :     0.013859  p :     0.041358
      px      :     0.017987
      py      :     0.009513

 79 H s       :     0.873539  s :     0.873539
      pz      :     0.016176  p :     0.040563
      px      :     0.013362
      py      :     0.011025

 80 H s       :     0.872773  s :     0.872773
      pz      :     0.016364  p :     0.040949
      px      :     0.013448
      py      :     0.011137

 81 H s       :     0.878298  s :     0.878298
      pz      :     0.016712  p :     0.041773
      px      :     0.014330
      py      :     0.010731

 82 H s       :     0.874482  s :     0.874482
      pz      :     0.016420  p :     0.040571
      px      :     0.013278
      py      :     0.010873

 83 H s       :     0.874044  s :     0.874044
      pz      :     0.012606  p :     0.041500
      px      :     0.006419
      py      :     0.022476

 84 H s       :     0.883594  s :     0.883594
      pz      :     0.013067  p :     0.040406
      px      :     0.017182
      py      :     0.010158

 85 H s       :     0.863933  s :     0.863933
      pz      :     0.012207  p :     0.042964
      px      :     0.007103
      py      :     0.023654

 86 H s       :     0.872867  s :     0.872867
      pz      :     0.013605  p :     0.041375
      px      :     0.017958
      py      :     0.009812

 87 H s       :     0.865462  s :     0.865462
      pz      :     0.014636  p :     0.042715
      px      :     0.006202
      py      :     0.021877

 88 H s       :     0.855695  s :     0.855695
      pz      :     0.016656  p :     0.041938
      px      :     0.011643
      py      :     0.013640

 89 H s       :     0.855614  s :     0.855614
      pz      :     0.020409  p :     0.041944
      px      :     0.013202
      py      :     0.008333

 90 H s       :     0.855896  s :     0.855896
      pz      :     0.020000  p :     0.041934
      px      :     0.005516
      py      :     0.016418

 91 H s       :     0.855720  s :     0.855720
      pz      :     0.015140  p :     0.041950
      px      :     0.018975
      py      :     0.007835

 92 H s       :     0.865546  s :     0.865546
      pz      :     0.014337  p :     0.042700
      px      :     0.006206
      py      :     0.022157

 93 H s       :     0.859910  s :     0.859910
      pz      :     0.016175  p :     0.041487
      px      :     0.011815
      py      :     0.013498

 94 H s       :     0.856157  s :     0.856157
      pz      :     0.020476  p :     0.041852
      px      :     0.013231
      py      :     0.008144

 95 H s       :     0.855674  s :     0.855674
      pz      :     0.020278  p :     0.041960
      px      :     0.005541
      py      :     0.016141

 96 H s       :     0.855584  s :     0.855584
      pz      :     0.015340  p :     0.041971
      px      :     0.018884
      py      :     0.007747

 97 H s       :     0.880620  s :     0.880620
      pz      :     0.006557  p :     0.037955
      px      :     0.006452
      py      :     0.024946

 98 H s       :     0.896995  s :     0.896995
      pz      :     0.005655  p :     0.038555
      px      :     0.026604
      py      :     0.006296

 99 H s       :     0.896972  s :     0.896972
      pz      :     0.025083  p :     0.038546
      px      :     0.007273
      py      :     0.006189


SPIN
  0 C s       :    -0.000885  s :    -0.000885
      pz      :    -0.013026  p :    -0.022730
      px      :    -0.002592
      py      :    -0.007112
      dz2     :     0.000110  d :     0.000616
      dxz     :     0.000199
      dyz     :     0.000082
      dx2y2   :     0.000096
      dxy     :     0.000129

  1 C s       :     0.001219  s :     0.001219
      pz      :     0.011210  p :     0.020084
      px      :     0.003270
      py      :     0.005604
      dz2     :    -0.000206  d :    -0.002054
      dxz     :    -0.000800
      dyz     :    -0.000279
      dx2y2   :    -0.000492
      dxy     :    -0.000276

  2 C s       :    -0.000881  s :    -0.000881
      pz      :    -0.013447  p :    -0.022772
      px      :    -0.002913
      py      :    -0.006413
      dz2     :     0.000098  d :     0.000608
      dxz     :     0.000148
      dyz     :     0.000130
      dx2y2   :     0.000159
      dxy     :     0.000073

  3 C s       :     0.000597  s :     0.000597
      pz      :     0.007038  p :     0.011808
      px      :     0.001465
      py      :     0.003305
      dz2     :    -0.000160  d :    -0.000854
      dxz     :    -0.000314
      dyz     :    -0.000062
      dx2y2   :    -0.000103
      dxy     :    -0.000216

  4 C s       :    -0.000844  s :    -0.000844
      pz      :    -0.013232  p :    -0.021253
      px      :    -0.002167
      py      :    -0.005854
      dz2     :     0.000173  d :     0.000179
      dxz     :    -0.000122
      dyz     :    -0.000007
      dx2y2   :     0.000063
      dxy     :     0.000072

  5 C s       :     0.000628  s :     0.000628
      pz      :     0.007574  p :     0.012561
      px      :     0.001622
      py      :     0.003366
      dz2     :    -0.000133  d :    -0.000853
      dxz     :    -0.000207
      dyz     :    -0.000163
      dx2y2   :    -0.000302
      dxy     :    -0.000048

  6 N s       :    -0.000220  s :    -0.000220
      pz      :    -0.009580  p :    -0.009411
      px      :     0.000242
      py      :    -0.000072
      dz2     :     0.000014  d :    -0.000722
      dxz     :    -0.000278
      dyz     :    -0.000064
      dx2y2   :    -0.000336
      dxy     :    -0.000059

  7 C s       :    -0.000848  s :    -0.000848
      pz      :    -0.013849  p :    -0.021362
      px      :    -0.002124
      py      :    -0.005389
      dz2     :     0.000169  d :     0.000187
      dxz     :    -0.000120
      dyz     :     0.000004
      dx2y2   :     0.000063
      dxy     :     0.000071

  8 C s       :    -0.000008  s :    -0.000008
      pz      :     0.000847  p :     0.001698
      px      :     0.000897
      py      :    -0.000046
      dz2     :    -0.000021  d :    -0.000393
      dxz     :    -0.000008
      dyz     :    -0.000348
      dx2y2   :    -0.000023
      dxy     :     0.000007

  9 C s       :    -0.000087  s :    -0.000087
      pz      :    -0.000543  p :    -0.002090
      px      :    -0.001490
      py      :    -0.000057
      dz2     :     0.000015  d :     0.000065
      dxz     :     0.000005
      dyz     :     0.000015
      dx2y2   :     0.000009
      dxy     :     0.000020

 10 C s       :     0.000066  s :     0.000066
      pz      :     0.000497  p :     0.001300
      px      :     0.000737
      py      :     0.000066
      dz2     :    -0.000015  d :    -0.000089
      dxz     :    -0.000004
      dyz     :    -0.000014
      dx2y2   :    -0.000009
      dxy     :    -0.000048

 11 C s       :    -0.000081  s :    -0.000081
      pz      :    -0.000842  p :    -0.001903
      px      :    -0.001033
      py      :    -0.000028
      dz2     :     0.000020  d :     0.000038
      dxz     :     0.000008
      dyz     :     0.000001
      dx2y2   :     0.000007
      dxy     :     0.000001

 12 C s       :     0.000065  s :     0.000065
      pz      :     0.000466  p :     0.001224
      px      :     0.000689
      py      :     0.000070
      dz2     :    -0.000016  d :    -0.000099
      dxz     :    -0.000004
      dyz     :    -0.000016
      dx2y2   :    -0.000008
      dxy     :    -0.000054

 13 C s       :    -0.000099  s :    -0.000099
      pz      :    -0.000647  p :    -0.002437
      px      :    -0.001732
      py      :    -0.000059
      dz2     :     0.000015  d :     0.000064
      dxz     :     0.000006
      dyz     :     0.000014
      dx2y2   :     0.000009
      dxy     :     0.000019

 14 C s       :     0.000605  s :     0.000605
      pz      :     0.007418  p :     0.011934
      px      :     0.001452
      py      :     0.003064
      dz2     :    -0.000165  d :    -0.000867
      dxz     :    -0.000337
      dyz     :    -0.000060
      dx2y2   :    -0.000098
      dxy     :    -0.000206

 15 C s       :    -0.000897  s :    -0.000897
      pz      :    -0.014340  p :    -0.023145
      px      :    -0.002896
      py      :    -0.005909
      dz2     :     0.000095  d :     0.000618
      dxz     :     0.000150
      dyz     :     0.000143
      dx2y2   :     0.000155
      dxy     :     0.000074

 16 C s       :     0.001242  s :     0.001242
      pz      :     0.011847  p :     0.020439
      px      :     0.003299
      py      :     0.005293
      dz2     :    -0.000204  d :    -0.002089
      dxz     :    -0.000816
      dyz     :    -0.000300
      dx2y2   :    -0.000497
      dxy     :    -0.000272

 17 C s       :    -0.000889  s :    -0.000889
      pz      :    -0.013767  p :    -0.022848
      px      :    -0.002529
      py      :    -0.006551
      dz2     :     0.000115  d :     0.000626
      dxz     :     0.000211
      dyz     :     0.000080
      dx2y2   :     0.000094
      dxy     :     0.000125

 18 C s       :     0.000633  s :     0.000633
      pz      :     0.007963  p :     0.012706
      px      :     0.001610
      py      :     0.003133
      dz2     :    -0.000124  d :    -0.000859
      dxz     :    -0.000214
      dyz     :    -0.000186
      dx2y2   :    -0.000288
      dxy     :    -0.000047

 19 C s       :    -0.003336  s :    -0.003336
      pz      :    -0.051357  p :    -0.082540
      px      :    -0.008920
      py      :    -0.022263
      dz2     :     0.000858  d :     0.002289
      dxz     :     0.000397
      dyz     :     0.000343
      dx2y2   :     0.000382
      dxy     :     0.000310

 20 N s       :     0.001391  s :     0.001391
      pz      :     0.026152  p :     0.043017
      px      :     0.002613
      py      :     0.014252
      dz2     :    -0.000742  d :    -0.003950
      dxz     :    -0.000798
      dyz     :    -0.000517
      dx2y2   :    -0.001670
      dxy     :    -0.000222

 21 C s       :    -0.007930  s :    -0.007930
      pz      :    -0.039190  p :    -0.088150
      px      :    -0.022737
      py      :    -0.026224
      dz2     :     0.000685  d :     0.002949
      dxz     :     0.000927
      dyz     :     0.000223
      dx2y2   :     0.000749
      dxy     :     0.000364

 22 C s       :     0.008295  s :     0.008295
      pz      :     0.055778  p :     0.094227
      px      :     0.015987
      py      :     0.022462
      dz2     :    -0.000753  d :    -0.016891
      dxz     :    -0.009491
      dyz     :    -0.004909
      dx2y2   :    -0.000919
      dxy     :    -0.000819

 23 C s       :    -0.007451  s :    -0.007451
      pz      :    -0.038837  p :    -0.088682
      px      :    -0.009944
      py      :    -0.039901
      dz2     :     0.000751  d :     0.002946
      dxz     :     0.000548
      dyz     :     0.000551
      dx2y2   :     0.000797
      dxy     :     0.000299

 24 C s       :     0.002288  s :     0.002288
      pz      :     0.031172  p :     0.054372
      px      :     0.008174
      py      :     0.015026
      dz2     :    -0.000506  d :    -0.003419
      dxz     :    -0.000961
      dyz     :    -0.000216
      dx2y2   :    -0.000915
      dxy     :    -0.000820

 25 C s       :    -0.025142  s :    -0.025142
      pz      :    -0.593827  p :    -0.636593
      px      :    -0.022562
      py      :    -0.020203
      dz2     :     0.001909  d :     0.006422
      dxz     :     0.000825
      dyz     :     0.000514
      dx2y2   :     0.001412
      dxy     :     0.001761

 26 C s       :     0.007851  s :     0.007851
      pz      :     0.032328  p :     0.081721
      px      :     0.014541
      py      :     0.034852
      dz2     :    -0.001601  d :    -0.016238
      dxz     :    -0.010530
      dyz     :    -0.002519
      dx2y2   :    -0.000663
      dxy     :    -0.000924

 27 C s       :     0.007862  s :     0.007862
      pz      :     0.028976  p :     0.082397
      px      :     0.039757
      py      :     0.013664
      dz2     :    -0.001214  d :    -0.016184
      dxz     :    -0.000324
      dyz     :    -0.013098
      dx2y2   :    -0.000988
      dxy     :    -0.000559

 28 C s       :    -0.007362  s :    -0.007362
      pz      :    -0.017478  p :    -0.083944
      px      :    -0.060381
      py      :    -0.006086
      dz2     :     0.000546  d :     0.002515
      dxz     :     0.000281
      dyz     :     0.000475
      dx2y2   :     0.000195
      dxy     :     0.001018

 29 C s       :     0.002185  s :     0.002185
      pz      :     0.014882  p :     0.048101
      px      :     0.031486
      py      :     0.001733
      dz2     :    -0.000653  d :    -0.003316
      dxz     :    -0.000264
      dyz     :    -0.000370
      dx2y2   :    -0.000432
      dxy     :    -0.001596

 30 C s       :    -0.003389  s :    -0.003389
      pz      :    -0.026174  p :    -0.076201
      px      :    -0.048008
      py      :    -0.002019
      dz2     :     0.000768  d :     0.001963
      dxz     :     0.000381
      dyz     :     0.000194
      dx2y2   :     0.000338
      dxy     :     0.000283

 31 C s       :     0.002162  s :     0.002162
      pz      :     0.014738  p :     0.048064
      px      :     0.031337
      py      :     0.001990
      dz2     :    -0.000424  d :    -0.003328
      dxz     :    -0.000161
      dyz     :    -0.000492
      dx2y2   :    -0.000265
      dxy     :    -0.001986

 32 C s       :    -0.007406  s :    -0.007406
      pz      :    -0.016372  p :    -0.084028
      px      :    -0.062641
      py      :    -0.005015
      dz2     :     0.000684  d :     0.002492
      dxz     :     0.000334
      dyz     :     0.000426
      dx2y2   :     0.000172
      dxy     :     0.000876

 33 C s       :    -0.007428  s :    -0.007428
      pz      :    -0.019315  p :    -0.083332
      px      :    -0.006640
      py      :    -0.057377
      dz2     :     0.000737  d :     0.002473
      dxz     :     0.000475
      dyz     :     0.000267
      dx2y2   :     0.000625
      dxy     :     0.000368

 34 C s       :     0.002141  s :     0.002141
      pz      :     0.016871  p :     0.047640
      px      :     0.005097
      py      :     0.025672
      dz2     :    -0.000392  d :    -0.003303
      dxz     :    -0.000556
      dyz     :    -0.000188
      dx2y2   :    -0.000639
      dxy     :    -0.001528

 35 C s       :    -0.003357  s :    -0.003357
      pz      :    -0.029771  p :    -0.075442
      px      :    -0.006095
      py      :    -0.039576
      dz2     :     0.000798  d :     0.001947
      dxz     :     0.000215
      dyz     :     0.000310
      dx2y2   :     0.000276
      dxy     :     0.000348

 36 C s       :     0.002162  s :     0.002162
      pz      :     0.017117  p :     0.047699
      px      :     0.004150
      py      :     0.026432
      dz2     :    -0.000741  d :    -0.003299
      dxz     :    -0.000451
      dyz     :    -0.000176
      dx2y2   :    -0.001444
      dxy     :    -0.000487

 37 C s       :    -0.007451  s :    -0.007451
      pz      :    -0.021048  p :    -0.083452
      px      :    -0.016953
      py      :    -0.045451
      dz2     :     0.000517  d :     0.002494
      dxz     :     0.000527
      dyz     :     0.000280
      dx2y2   :     0.000438
      dxy     :     0.000731

 38 Cls       :    -0.000053  s :    -0.000053
      pz      :    -0.002498  p :    -0.003730
      px      :    -0.000131
      py      :    -0.001101
      dz2     :    -0.000311  d :    -0.000845
      dxz     :    -0.000088
      dyz     :    -0.000027
      dx2y2   :    -0.000050
      dxy     :    -0.000369

 39 Cls       :    -0.000054  s :    -0.000054
      pz      :    -0.000094  p :    -0.003089
      px      :    -0.003703
      py      :     0.000708
      dz2     :    -0.000196  d :    -0.000823
      dxz     :    -0.000155
      dyz     :    -0.000012
      dx2y2   :    -0.000116
      dxy     :    -0.000343

 40 Cls       :    -0.000078  s :    -0.000078
      pz      :     0.000731  p :    -0.003688
      px      :    -0.004056
      py      :    -0.000363
      dz2     :    -0.000243  d :    -0.000850
      dxz     :    -0.000257
      dyz     :     0.000008
      dx2y2   :    -0.000208
      dxy     :    -0.000151

 41 Cls       :    -0.000056  s :    -0.000056
      pz      :    -0.001640  p :    -0.005436
      px      :    -0.000356
      py      :    -0.003440
      dz2     :    -0.000318  d :    -0.000796
      dxz     :    -0.000009
      dyz     :    -0.000078
      dx2y2   :    -0.000337
      dxy     :    -0.000054

 42 Cls       :    -0.000052  s :    -0.000052
      pz      :    -0.000758  p :    -0.003056
      px      :     0.000401
      py      :    -0.002699
      dz2     :    -0.000203  d :    -0.000825
      dxz     :    -0.000042
      dyz     :    -0.000088
      dx2y2   :    -0.000031
      dxy     :    -0.000460

 43 Cls       :    -0.000081  s :    -0.000081
      pz      :     0.000413  p :    -0.003562
      px      :    -0.000309
      py      :    -0.003667
      dz2     :    -0.000275  d :    -0.000851
      dxz     :    -0.000020
      dyz     :    -0.000190
      dx2y2   :    -0.000366
      dxy     :    -0.000000

 44 Cls       :    -0.000150  s :    -0.000150
      pz      :    -0.002621  p :    -0.006363
      px      :    -0.006614
      py      :     0.002872
      dz2     :    -0.000022  d :    -0.000818
      dxz     :    -0.000001
      dyz     :    -0.000226
      dx2y2   :    -0.000077
      dxy     :    -0.000492

 45 Cls       :    -0.000148  s :    -0.000148
      pz      :    -0.003023  p :    -0.006227
      px      :     0.001655
      py      :    -0.004858
      dz2     :    -0.000031  d :    -0.000812
      dxz     :    -0.000244
      dyz     :    -0.000019
      dx2y2   :    -0.000248
      dxy     :    -0.000272

 46 C s       :    -0.003392  s :    -0.003392
      pz      :    -0.052984  p :    -0.083991
      px      :    -0.009278
      py      :    -0.021729
      dz2     :     0.000863  d :     0.002329
      dxz     :     0.000416
      dyz     :     0.000363
      dx2y2   :     0.000379
      dxy     :     0.000308

 47 N s       :     0.001437  s :     0.001437
      pz      :     0.026995  p :     0.043909
      px      :     0.002964
      py      :     0.013950
      dz2     :    -0.000709  d :    -0.004021
      dxz     :    -0.000821
      dyz     :    -0.000588
      dx2y2   :    -0.001684
      dxy     :    -0.000220

 48 C s       :    -0.007996  s :    -0.007996
      pz      :    -0.040268  p :    -0.088810
      px      :    -0.022991
      py      :    -0.025551
      dz2     :     0.000698  d :     0.002977
      dxz     :     0.000939
      dyz     :     0.000226
      dx2y2   :     0.000742
      dxy     :     0.000371

 49 C s       :     0.008056  s :     0.008056
      pz      :     0.056780  p :     0.094066
      px      :     0.015621
      py      :     0.021666
      dz2     :    -0.000717  d :    -0.017001
      dxz     :    -0.009697
      dyz     :    -0.004884
      dx2y2   :    -0.000886
      dxy     :    -0.000817

 50 C s       :    -0.007545  s :    -0.007545
      pz      :    -0.040488  p :    -0.090058
      px      :    -0.010230
      py      :    -0.039339
      dz2     :     0.000732  d :     0.002966
      dxz     :     0.000546
      dyz     :     0.000593
      dx2y2   :     0.000801
      dxy     :     0.000293

 51 C s       :     0.002320  s :     0.002320
      pz      :     0.032052  p :     0.055207
      px      :     0.008403
      py      :     0.014753
      dz2     :    -0.000533  d :    -0.003490
      dxz     :    -0.000985
      dyz     :    -0.000225
      dx2y2   :    -0.000922
      dxy     :    -0.000825

 52 C s       :    -0.022514  s :    -0.022514
      pz      :    -0.594418  p :    -0.631673
      px      :    -0.021316
      py      :    -0.015938
      dz2     :     0.001892  d :     0.005529
      dxz     :     0.000864
      dyz     :     0.000360
      dx2y2   :     0.001414
      dxy     :     0.000999

 53 C s       :     0.007794  s :     0.007794
      pz      :     0.032154  p :     0.083897
      px      :     0.014626
      py      :     0.037117
      dz2     :    -0.001668  d :    -0.016495
      dxz     :    -0.010711
      dyz     :    -0.002545
      dx2y2   :    -0.000637
      dxy     :    -0.000933

 54 C s       :     0.007763  s :     0.007763
      pz      :     0.024231  p :     0.050707
      px      :     0.013618
      py      :     0.012859
      dz2     :     0.003239  d :    -0.001549
      dxz     :     0.002951
      dyz     :    -0.011816
      dx2y2   :     0.003906
      dxy     :     0.000171

 55 C s       :     0.125961  s :     0.125961
      pz      :     0.437131  p :     0.721384
      px      :     0.188582
      py      :     0.095671
      dz2     :    -0.000327  d :     0.000874
      dxz     :     0.000078
      dyz     :    -0.000062
      dx2y2   :     0.000714
      dxy     :     0.000471

 56 C s       :     0.001148  s :     0.001148
      pz      :    -0.002631  p :     0.003678
      px      :    -0.003920
      py      :     0.010230
      dz2     :     0.000405  d :     0.013940
      dxz     :     0.000429
      dyz     :     0.008838
      dx2y2   :     0.000755
      dxy     :     0.003513

 57 C s       :     0.008910  s :     0.008910
      pz      :    -0.005062  p :    -0.030699
      px      :    -0.023395
      py      :    -0.002242
      dz2     :    -0.000002  d :     0.000487
      dxz     :     0.000034
      dyz     :    -0.000058
      dx2y2   :     0.000456
      dxy     :     0.000057

 58 C s       :     0.000627  s :     0.000627
      pz      :     0.000750  p :     0.002775
      px      :     0.001636
      py      :     0.000389
      dz2     :    -0.000207  d :    -0.002219
      dxz     :    -0.000066
      dyz     :    -0.000310
      dx2y2   :    -0.000077
      dxy     :    -0.001559

 59 C s       :     0.003951  s :     0.003951
      pz      :    -0.003987  p :    -0.044145
      px      :    -0.042108
      py      :     0.001950
      dz2     :     0.000286  d :     0.001908
      dxz     :     0.000461
      dyz     :     0.000815
      dx2y2   :    -0.000107
      dxy     :     0.000453

 60 C s       :    -0.007684  s :    -0.007684
      pz      :    -0.019675  p :    -0.087620
      px      :    -0.007157
      py      :    -0.060787
      dz2     :     0.000759  d :     0.002596
      dxz     :     0.000499
      dyz     :     0.000281
      dx2y2   :     0.000678
      dxy     :     0.000380

 61 C s       :     0.002279  s :     0.002279
      pz      :     0.017163  p :     0.050448
      px      :     0.005506
      py      :     0.027778
      dz2     :    -0.000409  d :    -0.003494
      dxz     :    -0.000565
      dyz     :    -0.000208
      dx2y2   :    -0.000687
      dxy     :    -0.001625

 62 C s       :    -0.003528  s :    -0.003528
      pz      :    -0.030121  p :    -0.079273
      px      :    -0.006628
      py      :    -0.042524
      dz2     :     0.000831  d :     0.002058
      dxz     :     0.000227
      dyz     :     0.000340
      dx2y2   :     0.000289
      dxy     :     0.000370

 63 C s       :     0.002260  s :     0.002260
      pz      :     0.017347  p :     0.050174
      px      :     0.004592
      py      :     0.028234
      dz2     :    -0.000771  d :    -0.003483
      dxz     :    -0.000469
      dyz     :    -0.000193
      dx2y2   :    -0.001533
      dxy     :    -0.000517

 64 C s       :    -0.007532  s :    -0.007532
      pz      :    -0.021059  p :    -0.087369
      px      :    -0.017622
      py      :    -0.048688
      dz2     :     0.000522  d :     0.002565
      dxz     :     0.000523
      dyz     :     0.000305
      dx2y2   :     0.000438
      dxy     :     0.000776

 65 Cls       :    -0.000055  s :    -0.000055
      pz      :    -0.002537  p :    -0.003752
      px      :    -0.000211
      py      :    -0.001004
      dz2     :    -0.000325  d :    -0.000874
      dxz     :    -0.000088
      dyz     :    -0.000027
      dx2y2   :    -0.000054
      dxy     :    -0.000381

 66 Cls       :     0.000335  s :     0.000335
      pz      :     0.011429  p :     0.013175
      px      :     0.001990
      py      :    -0.000244
      dz2     :    -0.000036  d :    -0.000556
      dxz     :    -0.000103
      dyz     :    -0.000065
      dx2y2   :    -0.000034
      dxy     :    -0.000318

 67 Cls       :    -0.000754  s :    -0.000754
      pz      :     0.002698  p :     0.999898
      px      :     0.992520
      py      :     0.004681
      dz2     :     0.000189  d :     0.000758
      dxz     :     0.000006
      dyz     :     0.000000
      dx2y2   :     0.000552
      dxy     :     0.000010

 68 Cls       :    -0.000052  s :    -0.000052
      pz      :    -0.001765  p :    -0.005291
      px      :    -0.000213
      py      :    -0.003314
      dz2     :    -0.000320  d :    -0.000813
      dxz     :    -0.000014
      dyz     :    -0.000084
      dx2y2   :    -0.000342
      dxy     :    -0.000053

 69 Cls       :    -0.000053  s :    -0.000053
      pz      :    -0.000649  p :    -0.003247
      px      :     0.000321
      py      :    -0.002920
      dz2     :    -0.000215  d :    -0.000885
      dxz     :    -0.000045
      dyz     :    -0.000101
      dx2y2   :    -0.000036
      dxy     :    -0.000488

 70 Cls       :    -0.000111  s :    -0.000111
      pz      :     0.000621  p :    -0.004099
      px      :    -0.000606
      py      :    -0.004113
      dz2     :    -0.000288  d :    -0.000906
      dxz     :    -0.000034
      dyz     :    -0.000213
      dx2y2   :    -0.000368
      dxy     :    -0.000003

 71 Cls       :    -0.000053  s :    -0.000053
      pz      :     0.000169  p :     0.005805
      px      :    -0.003957
      py      :     0.009593
      dz2     :    -0.000051  d :    -0.000450
      dxz     :    -0.000001
      dyz     :     0.000011
      dx2y2   :    -0.000154
      dxy     :    -0.000256

 72 Cls       :    -0.000154  s :    -0.000154
      pz      :    -0.003017  p :    -0.006444
      px      :     0.001721
      py      :    -0.005147
      dz2     :    -0.000032  d :    -0.000860
      dxz     :    -0.000249
      dyz     :    -0.000018
      dx2y2   :    -0.000269
      dxy     :    -0.000291

 73 O s       :    -0.000012  s :    -0.000012
      pz      :    -0.000179  p :    -0.000417
      px      :    -0.000259
      py      :     0.000021
      dz2     :    -0.000000  d :    -0.000029
      dxz     :     0.000000
      dyz     :    -0.000012
      dx2y2   :    -0.000001
      dxy     :    -0.000015

 74 C s       :     0.000003  s :     0.000003
      pz      :     0.000009  p :     0.000022
      px      :     0.000008
      py      :     0.000005
      dz2     :    -0.000010  d :    -0.000013
      dxz     :    -0.000001
      dyz     :    -0.000000
      dx2y2   :    -0.000003
      dxy     :    -0.000000

 75 H s       :     0.000635  s :     0.000635
      pz      :    -0.000181  p :    -0.000327
      px      :    -0.000051
      py      :    -0.000095

 76 H s       :     0.000687  s :     0.000687
      pz      :    -0.000193  p :    -0.000330
      px      :    -0.000053
      py      :    -0.000084

 77 H s       :    -0.000328  s :    -0.000328
      pz      :     0.000099  p :     0.000180
      px      :     0.000023
      py      :     0.000058

 78 H s       :    -0.000354  s :    -0.000354
      pz      :     0.000102  p :     0.000184
      px      :     0.000034
      py      :     0.000048

 79 H s       :     0.000068  s :     0.000068
      pz      :    -0.000011  p :    -0.000034
      px      :    -0.000015
      py      :    -0.000009

 80 H s       :    -0.000052  s :    -0.000052
      pz      :     0.000008  p :     0.000020
      px      :     0.000010
      py      :     0.000002

 81 H s       :    -0.000048  s :    -0.000048
      pz      :     0.000008  p :     0.000019
      px      :     0.000010
      py      :     0.000002

 82 H s       :     0.000078  s :     0.000078
      pz      :    -0.000013  p :    -0.000039
      px      :    -0.000017
      py      :    -0.000009

 83 H s       :    -0.000331  s :    -0.000331
      pz      :     0.000103  p :     0.000182
      px      :     0.000023
      py      :     0.000056

 84 H s       :     0.000698  s :     0.000698
      pz      :    -0.000205  p :    -0.000337
      px      :    -0.000053
      py      :    -0.000079

 85 H s       :     0.000577  s :     0.000577
      pz      :    -0.000187  p :    -0.000326
      px      :    -0.000051
      py      :    -0.000088

 86 H s       :    -0.000359  s :    -0.000359
      pz      :     0.000107  p :     0.000186
      px      :     0.000034
      py      :     0.000045

 87 H s       :    -0.002071  s :    -0.002071
      pz      :     0.000437  p :     0.000832
      px      :     0.000125
      py      :     0.000270

 88 H s       :    -0.001831  s :    -0.001831
      pz      :     0.000226  p :     0.000721
      px      :     0.000435
      py      :     0.000059

 89 H s       :    -0.001872  s :    -0.001872
      pz      :     0.000251  p :     0.000720
      px      :     0.000436
      py      :     0.000033

 90 H s       :    -0.001859  s :    -0.001859
      pz      :     0.000278  p :     0.000714
      px      :     0.000066
      py      :     0.000371

 91 H s       :    -0.001830  s :    -0.001830
      pz      :     0.000248  p :     0.000715
      px      :     0.000108
      py      :     0.000359

 92 H s       :    -0.002095  s :    -0.002095
      pz      :     0.000448  p :     0.000845
      px      :     0.000128
      py      :     0.000269

 93 H s       :     0.013999  s :     0.013999
      pz      :    -0.000106  p :    -0.000404
      px      :    -0.000088
      py      :    -0.000209

 94 H s       :    -0.000732  s :    -0.000732
      pz      :     0.000023  p :     0.000038
      px      :     0.000020
      py      :    -0.000005

 95 H s       :    -0.001935  s :    -0.001935
      pz      :     0.000287  p :     0.000757
      px      :     0.000072
      py      :     0.000399

 96 H s       :    -0.001910  s :    -0.001910
      pz      :     0.000255  p :     0.000753
      px      :     0.000115
      py      :     0.000382

 97 H s       :     0.000001  s :     0.000001
      pz      :     0.000000  p :     0.000000
      px      :     0.000000
      py      :    -0.000000

 98 H s       :    -0.000024  s :    -0.000024
      pz      :     0.000000  p :    -0.000000
      px      :    -0.000000
      py      :     0.000000

 99 H s       :    -0.000024  s :    -0.000024
      pz      :    -0.000000  p :     0.000000
      px      :     0.000000
      py      :     0.000000



                      *****************************
                      * MAYER POPULATION ANALYSIS *
                      *****************************

  NA   - Mulliken gross atomic population
  ZA   - Total nuclear charge
  QA   - Mulliken gross atomic charge
  VA   - Mayer's total valence
  BVA  - Mayer's bonded valence
  FA   - Mayer's free valence

  ATOM       NA         ZA         QA         VA         BVA        FA
  0 C      6.1174     6.0000    -0.1174     3.9266     3.9261     0.0006
  1 C      5.9264     6.0000     0.0736     3.9656     3.9651     0.0005
  2 C      6.1309     6.0000    -0.1309     3.9447     3.9442     0.0006
  3 C      6.1263     6.0000    -0.1263     3.9252     3.9251     0.0002
  4 C      5.7561     6.0000     0.2439     3.9504     3.9498     0.0006
  5 C      6.1204     6.0000    -0.1204     3.8888     3.8886     0.0002
  6 N      7.5610     7.0000    -0.5610     2.9725     2.9724     0.0001
  7 C      5.7553     6.0000     0.2447     3.9474     3.9468     0.0006
  8 C      5.8261     6.0000     0.1739     3.9706     3.9706     0.0000
  9 C      6.0905     6.0000    -0.0905     3.9259     3.9259     0.0000
 10 C      6.1335     6.0000    -0.1335     3.9319     3.9318     0.0000
 11 C      5.6684     6.0000     0.3316     3.8776     3.8776     0.0000
 12 C      6.1620     6.0000    -0.1620     3.9011     3.9011     0.0000
 13 C      6.0975     6.0000    -0.0975     3.9360     3.9360     0.0000
 14 C      6.1273     6.0000    -0.1273     3.9253     3.9251     0.0002
 15 C      6.1306     6.0000    -0.1306     3.9453     3.9447     0.0006
 16 C      5.9259     6.0000     0.0741     3.9652     3.9647     0.0005
 17 C      6.1165     6.0000    -0.1165     3.9268     3.9263     0.0006
 18 C      6.1209     6.0000    -0.1209     3.8893     3.8891     0.0002
 19 C      5.8094     6.0000     0.1906     4.0027     3.9949     0.0078
 20 N      7.3714     7.0000    -0.3714     3.0316     3.0293     0.0023
 21 C      5.9725     6.0000     0.0275     3.9760     3.9669     0.0091
 22 C      5.8790     6.0000     0.1210     3.8841     3.8718     0.0124
 23 C      6.1067     6.0000    -0.1067     3.9651     3.9560     0.0091
 24 C      6.0826     6.0000    -0.0826     3.8343     3.8308     0.0035
 25 C      6.1051     6.0000    -0.1051     3.9242     3.4821     0.4421
 26 C      5.8678     6.0000     0.1322     3.9258     3.9164     0.0095
 27 C      5.8633     6.0000     0.1367     3.9279     3.9183     0.0096
 28 C      6.1250     6.0000    -0.1250     3.9694     3.9614     0.0081
 29 C      6.0454     6.0000    -0.0454     3.8920     3.8892     0.0028
 30 C      6.0946     6.0000    -0.0946     3.9846     3.9779     0.0066
 31 C      6.0447     6.0000    -0.0447     3.8925     3.8897     0.0028
 32 C      6.1239     6.0000    -0.1239     3.9678     3.9598     0.0081
 33 C      6.1249     6.0000    -0.1249     3.9680     3.9600     0.0079
 34 C      6.0458     6.0000    -0.0458     3.8917     3.8889     0.0027
 35 C      6.0950     6.0000    -0.0950     3.9835     3.9770     0.0065
 36 C      6.0460     6.0000    -0.0460     3.8917     3.8890     0.0027
 37 C      6.1261     6.0000    -0.1261     3.9688     3.9608     0.0080
 38 Cl    16.9787    17.0000     0.0213     1.1409     1.1408     0.0001
 39 Cl    16.9852    17.0000     0.0148     1.1332     1.1331     0.0001
 40 Cl    16.9828    17.0000     0.0172     1.1351     1.1350     0.0001
 41 Cl    16.9862    17.0000     0.0138     1.1466     1.1465     0.0001
 42 Cl    16.9813    17.0000     0.0187     1.1364     1.1363     0.0001
 43 Cl    16.9828    17.0000     0.0172     1.1351     1.1351     0.0001
 44 Cl    16.9934    17.0000     0.0066     1.1039     1.1038     0.0001
 45 Cl    16.9943    17.0000     0.0057     1.1030     1.1029     0.0001
 46 C      5.8096     6.0000     0.1904     4.0031     3.9950     0.0081
 47 N      7.3722     7.0000    -0.3722     3.0309     3.0286     0.0024
 48 C      5.9717     6.0000     0.0283     3.9756     3.9664     0.0092
 49 C      5.8809     6.0000     0.1191     3.8826     3.8702     0.0124
 50 C      6.1064     6.0000    -0.1064     3.9644     3.9551     0.0094
 51 C      6.0822     6.0000    -0.0822     3.8351     3.8315     0.0036
 52 C      6.0838     6.0000    -0.0838     3.9182     3.4723     0.4459
 53 C      5.8624     6.0000     0.1376     3.9254     3.9155     0.0099
 54 C      5.9513     6.0000     0.0487     3.9439     3.9390     0.0049
 55 C      5.9709     6.0000     0.0291     3.8263     3.0596     0.7666
 56 C      6.1070     6.0000    -0.1070     3.9295     3.9269     0.0025
 57 C      6.0824     6.0000    -0.0824     4.0008     3.9974     0.0034
 58 C      6.0481     6.0000    -0.0481     3.9040     3.9040     0.0000
 59 C      6.1069     6.0000    -0.1069     3.9925     3.9883     0.0042
 60 C      6.1369     6.0000    -0.1369     3.9676     3.9588     0.0088
 61 C      6.0459     6.0000    -0.0459     3.8906     3.8876     0.0030
 62 C      6.0956     6.0000    -0.0956     3.9835     3.9763     0.0072
 63 C      6.0475     6.0000    -0.0475     3.8900     3.8870     0.0030
 64 C      6.1298     6.0000    -0.1298     3.9704     3.9616     0.0088
 65 Cl    16.9799    17.0000     0.0201     1.1385     1.1384     0.0001
 66 Cl    16.9891    17.0000     0.0109     1.1284     1.1279     0.0005
 67 Cl    16.9995    17.0000     0.0005     1.0052     0.0020     1.0032
 68 Cl    16.9911    17.0000     0.0089     1.1449     1.1448     0.0001
 69 Cl    16.9813    17.0000     0.0187     1.1326     1.1325     0.0001
 70 Cl    16.9803    17.0000     0.0197     1.1387     1.1386     0.0001
 71 Cl    16.9967    17.0000     0.0033     1.0998     1.0995     0.0003
 72 Cl    16.9938    17.0000     0.0062     1.1034     1.1033     0.0001
 73 O      8.4872     8.0000    -0.4872     2.0065     2.0065     0.0000
 74 C      6.0796     6.0000    -0.0796     3.8233     3.8233     0.0000
 75 H      0.8673     1.0000     0.1327     0.9680     0.9680     0.0000
 76 H      0.9080     1.0000     0.0920     0.9610     0.9610     0.0000
 77 H      0.8911     1.0000     0.1089     0.9660     0.9660     0.0000
 78 H      0.8871     1.0000     0.1129     0.9649     0.9649     0.0000
 79 H      0.8904     1.0000     0.1096     0.9620     0.9620     0.0000
 80 H      0.8923     1.0000     0.1077     0.9626     0.9626     0.0000
 81 H      0.9015     1.0000     0.0985     0.9658     0.9658     0.0000
 82 H      0.8916     1.0000     0.1084     0.9629     0.9629     0.0000
 83 H      0.8916     1.0000     0.1084     0.9663     0.9663     0.0000
 84 H      0.9079     1.0000     0.0921     0.9610     0.9610     0.0000
 85 H      0.8680     1.0000     0.1320     0.9691     0.9691     0.0000
 86 H      0.8867     1.0000     0.1133     0.9648     0.9648     0.0000
 87 H      0.8743     1.0000     0.1257     0.9620     0.9620     0.0000
 88 H      0.8545     1.0000     0.1455     0.9585     0.9584     0.0000
 89 H      0.8544     1.0000     0.1456     0.9584     0.9584     0.0000
 90 H      0.8549     1.0000     0.1451     0.9586     0.9586     0.0000
 91 H      0.8545     1.0000     0.1455     0.9584     0.9584     0.0000
 92 H      0.8744     1.0000     0.1256     0.9620     0.9619     0.0000
 93 H      0.8635     1.0000     0.1365     0.9577     0.9574     0.0003
 94 H      0.8540     1.0000     0.1460     0.9575     0.9575     0.0000
 95 H      0.8543     1.0000     0.1457     0.9585     0.9584     0.0000
 96 H      0.8540     1.0000     0.1460     0.9583     0.9583     0.0000
 97 H      0.8704     1.0000     0.1296     0.9554     0.9554     0.0000
 98 H      0.8881     1.0000     0.1119     0.9510     0.9510     0.0000
 99 H      0.8879     1.0000     0.1121     0.9509     0.9509     0.0000

  Mayer bond orders larger than 0.100000
B(  0-C ,  1-C ) :   1.3843 B(  0-C ,  5-C ) :   1.4435 B(  0-C , 75-H ) :   0.9240 
B(  1-C ,  2-C ) :   1.3954 B(  1-C , 19-C ) :   1.0582 B(  2-C ,  3-C ) :   1.4524 
B(  2-C , 76-H ) :   0.9365 B(  3-C ,  4-C ) :   1.3928 B(  3-C , 77-H ) :   0.9330 
B(  4-C ,  5-C ) :   1.3789 B(  4-C ,  6-N ) :   0.9589 B(  5-C , 78-H ) :   0.9349 
B(  6-N ,  7-C ) :   0.9577 B(  6-N ,  8-C ) :   0.9151 B(  7-C , 14-C ) :   1.3933 
B(  7-C , 18-C ) :   1.3774 B(  8-C ,  9-C ) :   1.3937 B(  8-C , 13-C ) :   1.4431 
B(  9-C , 10-C ) :   1.4673 B(  9-C , 79-H ) :   0.9382 B( 10-C , 11-C ) :   1.3805 
B( 10-C , 80-H ) :   0.9370 B( 11-C , 12-C ) :   1.3816 B( 11-C , 73-O ) :   0.9748 
B( 12-C , 13-C ) :   1.4101 B( 12-C , 81-H ) :   0.9344 B( 13-C , 82-H ) :   0.9379 
B( 14-C , 15-C ) :   1.4511 B( 14-C , 83-H ) :   0.9327 B( 15-C , 16-C ) :   1.3970 
B( 15-C , 84-H ) :   0.9365 B( 16-C , 17-C ) :   1.3832 B( 16-C , 46-C ) :   1.0576 
B( 17-C , 18-C ) :   1.4453 B( 17-C , 85-H ) :   0.9235 B( 18-C , 86-H ) :   0.9349 
B( 19-C , 20-N ) :   1.3689 B( 19-C , 24-C ) :   1.3607 B( 20-N , 21-C ) :   1.4898 
B( 21-C , 22-C ) :   1.2462 B( 21-C , 41-Cl) :   1.0645 B( 22-C , 23-C ) :   1.3256 
B( 22-C , 25-C ) :   1.0793 B( 23-C , 24-C ) :   1.4087 B( 23-C , 38-Cl) :   1.0632 
B( 24-C , 87-H ) :   0.9254 B( 25-C , 26-C ) :   1.0642 B( 25-C , 27-C ) :   1.0640 
B( 26-C , 33-C ) :   1.3319 B( 26-C , 37-C ) :   1.3335 B( 27-C , 28-C ) :   1.3331 
B( 27-C , 32-C ) :   1.3321 B( 28-C , 29-C ) :   1.4169 B( 28-C , 40-Cl) :   1.0549 
B( 29-C , 30-C ) :   1.4027 B( 29-C , 88-H ) :   0.9332 B( 30-C , 31-C ) :   1.4023 
B( 30-C , 44-Cl) :   1.0360 B( 31-C , 32-C ) :   1.4180 B( 31-C , 89-H ) :   0.9331 
B( 32-C , 39-Cl) :   1.0533 B( 33-C , 34-C ) :   1.4171 B( 33-C , 42-Cl) :   1.0558 
B( 34-C , 35-C ) :   1.4022 B( 34-C , 90-H ) :   0.9333 B( 35-C , 36-C ) :   1.4031 
B( 35-C , 45-Cl) :   1.0354 B( 36-C , 37-C ) :   1.4162 B( 36-C , 91-H ) :   0.9332 
B( 37-C , 43-Cl) :   1.0552 B( 46-C , 47-N ) :   1.3691 B( 46-C , 51-C ) :   1.3613 
B( 47-N , 48-C ) :   1.4892 B( 48-C , 49-C ) :   1.2478 B( 48-C , 68-Cl) :   1.0628 
B( 49-C , 50-C ) :   1.3260 B( 49-C , 52-C ) :   1.0811 B( 50-C , 51-C ) :   1.4087 
B( 50-C , 65-Cl) :   1.0617 B( 51-C , 92-H ) :   0.9255 B( 52-C , 53-C ) :   1.0752 
B( 52-C , 54-C ) :   1.0412 B( 53-C , 60-C ) :   1.3324 B( 53-C , 64-C ) :   1.3299 
B( 54-C , 55-C ) :   1.3710 B( 54-C , 59-C ) :   1.3510 B( 55-C , 56-C ) :   1.4698 
B( 56-C , 57-C ) :   1.3967 B( 56-C , 93-H ) :   0.9336 B( 57-C , 58-C ) :   1.4208 
B( 57-C , 71-Cl) :   1.0309 B( 58-C , 59-C ) :   1.4209 B( 58-C , 94-H ) :   0.9322 
B( 59-C , 66-Cl) :   1.0461 B( 60-C , 61-C ) :   1.4140 B( 60-C , 69-Cl) :   1.0550 
B( 61-C , 62-C ) :   1.4039 B( 61-C , 95-H ) :   0.9333 B( 62-C , 63-C ) :   1.4009 
B( 62-C , 72-Cl) :   1.0358 B( 63-C , 64-C ) :   1.4170 B( 63-C , 96-H ) :   0.9333 
B( 64-C , 70-Cl) :   1.0570 B( 73-O , 74-C ) :   0.9185 B( 74-C , 97-H ) :   0.9678 
B( 74-C , 98-H ) :   0.9496 B( 74-C , 99-H ) :   0.9498 

-------
TIMINGS
-------

Total SCF time: 0 days 0 hours 21 min 17 sec 

Total time                  ....    1277.242 sec
Sum of individual times     ....    1236.570 sec  ( 96.8%)

Fock matrix formation       ....    1150.424 sec  ( 90.1%)
  Startup                   ....       0.692 sec  (  0.1% of F)
  Split-RI-J                ....     152.994 sec  ( 13.3% of F)
  Chain of spheres X        ....     946.963 sec  ( 82.3% of F)
  XC integration            ....      34.369 sec  (  3.0% of F)
    XC Preparation          ....       0.000 sec  (  0.0% of XC)
    Basis function eval.    ....       4.430 sec  ( 12.9% of XC)
    Density eval.           ....       8.314 sec  ( 24.2% of XC)
    XC-Functional eval.     ....       1.115 sec  (  3.2% of XC)
    XC-Potential eval.      ....       7.515 sec  ( 21.9% of XC)
Diagonalization             ....       0.000 sec  (  0.0%)
Density matrix formation    ....      11.954 sec  (  0.9%)
Total Energy calculation    ....       1.712 sec  (  0.1%)
Population analysis         ....       0.315 sec  (  0.0%)
Orbital Transformation      ....      43.306 sec  (  3.4%)
Orbital Orthonormalization  ....       0.000 sec  (  0.0%)
DIIS solution               ....      28.663 sec  (  2.2%)
SOSCF solution              ....       0.000 sec  (  0.0%)
NR solution                 ....       0.081 sec  (  0.0%)
Finished LeanSCF after 2344.1 sec

Maximum memory used throughout the entire LEANSCF-calculation: 254.6 MB


           ************************************************************
           *        Program running with 24 parallel MPI-processes    *
           *              working on a common directory               *
           ************************************************************

------------------------------------------------------------------------------
                         ORCA PROPERTY INTEGRAL CALCULATIONS
------------------------------------------------------------------------------

GBWName                                   ... TPA-OMe.gbw
Number of atoms                           ...    100
Number of basis functions                 ...   1239
Max core memory                           ...  20000 MB

Dipole integrals                          ... YES
Quadrupole integrals                      ...  NO
Linear momentum integrals                 ... YES
Angular momentum integrals                ... YES
Higher moments length integrals           ...  NO
Higher moments velocity integrals         ...  NO
Kinetic energy integrals                  ...  NO
GIAO right hand sides                     ...  NO
GIAO dipole derivative integrals          ...  NO
SOC integrals                             ...  NO
EPR diamagnetic integrals (GIAO)          ...  NO
EPR gauge integrals                       ...  NO
Field gradient integrals                  ...  NO (   0 nuclei)
Spin-dipole/Fermi contact integrals       ...  NO (   0 nuclei)
Contact density integrals                 ...  NO (   0 nuclei)
Nucleus-orbit integrals                   ...  NO (   0 nuclei)
Geometric perturbations                   ...  NO ( 100 nuclei)

Choice of electric origin   ... Center of mass
Position of electric origin ... ( -0.4558, -0.1472, -0.0027) 
Choice of magnetic origin   ... GIAO
Position of magnetic origin ... (  0.0000,  0.0000,  0.0000) 

Calculating integrals                     ... Electric Dipole (Length)     done (  0.0 sec)
Calculating integrals                     ... Linear Momentum              done (  0.1 sec)
Calculating integrals                     ... Angular Momentum  (ElOri)    done (  0.1 sec)

Property integrals calculated in   0.2 sec

Maximum memory used throughout the entire PROPINT-calculation: 140.1 MB


           ************************************************************
           *        Program running with 24 parallel MPI-processes    *
           *              working on a common directory               *
           ************************************************************
------------------------------------------------------------------------------
                        ORCA TD-DFT/TDA CALCULATION
------------------------------------------------------------------------------

Input orbitals are from        ... TPA-OMe.gbw
CI-vector output               ... TPA-OMe.cis
Solver                         ... FN-2001
Tamm-Dancoff approximation     ... operative
CIS-Integral strategy          ... AO-integrals
Integral handling              ... AO integral Direct
Max. core memory used          ... 20000 MB
Reference state                ... UHF
Follow IRoot                   ... off
Number of operators            ... 2
Orbital ranges used for CIS calculation:
 Operator 0:  Orbitals 139...327  to 328...1238
 Operator 1:  Orbitals 139...327  to 328...1238
XAS localization array:
 Operator 0:  Orbitals  -1... -1
 Operator 1:  Orbitals  -1... -1

-------------------
XC-INTEGRATION GRID
-------------------

General Integration Accuracy     IntAcc      ... 3.467
Radial Grid Type                 RadialGrid  ... OptM3 with GC (2021)
Angular Grid (max. ang.)         AngularGrid ... 1 (Lebedev-50)
Angular grid pruning method      GridPruning ... 4 (adaptive)
Weight generation scheme         WeightScheme... mBecke (2022)
Basis function cutoff            BFCut       ... 1.0000e-11
Integration weight cutoff        WCut        ... 1.0000e-14
Partially contracted basis set               ... off
Rotationally invariant grid construction     ... off
Angular grids for H and He will be reduced by one unit

Total number of grid points                  ...    93535
Total number of batches                      ...     1510
Average number of points per batch           ...       61
Average number of grid points per atom       ...      935

---------------------
COSX-INTEGRATION GRID
---------------------

General Integration Accuracy     IntAcc      ... 3.067
Radial Grid Type                 RadialGrid  ... OptM3 with GC (2021)
Angular Grid (max. ang.)         AngularGrid ... 1 (Lebedev-50)
Angular grid pruning method      GridPruning ... 4 (adaptive)
Weight generation scheme         WeightScheme... mBecke (2022)
Basis function cutoff            BFCut       ... 1.0000e-11
Integration weight cutoff        WCut        ... 1.0000e-14
Partially contracted basis set               ... on
Rotationally invariant grid construction     ... off
Angular grids for H and He will be reduced by one unit

Total number of grid points                  ...    49663
Total number of batches                      ...      440
Average number of points per batch           ...      112
Average number of grid points per atom       ...      497

---------------
TD-DFT XC SETUP
---------------

DFT calculation                         ... on
Name of the grid file                   ... TPA-OMe.grid_cis.tmp
RI-approximation                        ... on
Aux-basis dimension                     ... 0
Exchange functional (TD-DFT)            ... WB88
Correlation functional (TD-DFT)         ... LYP
 LDA part of GGA corr.  LDAOpt (TD-DFT) ... VWN-5
Hybrid DFT                              ... on
   Exchange mixing (TD-DFT)             ...  0.190
   GGA exch. scaling (TD-DFT)           ...  0.350
   GGA corr. scaling (TD-DFT)           ...  0.810
Range-Separated Exchange                ... on
   Range Range separation parameter mu  .... 0.330
   Max. amount of RS exchange (TD-DFT)  ...  0.460

Building densities             ... done
Calculating rho(r) on the grid ... done
Building xc-kernel on the grid ... done
                    *** TD-DFT CALCULATION INITIALIZED ***

------------------------
DAVIDSON-DIAGONALIZATION
------------------------

Dimension of the eigenvalue problem            ... 344358
Number of roots to be determined               ...     50
Maximum size of the expansion space            ...    500
Maximum number of iterations                   ...    100
Convergence tolerance for the residual         ...    2.500e-07
Convergence tolerance for the energies         ...    2.500e-07
Orthogonality tolerance                        ...    1.000e-14
Level Shift                                    ...    0.000e+00
Constructing the preconditioner                ... o.k.
Building the initial guess                     ... o.k.
Number of trial vectors determined             ...    500


                       ****Iteration    0****
   Time for iteration     :  TOTAL=84.5 TRAFO=8.0 RIJ=12.0 COSX=52.3 XC=11.1
   Size of expansion space: 150
   Lowest Energy          :     0.050118314196
   Maximum Energy change  :     0.209297384943 (vector 49)
   Maximum residual norm  :     0.006842156464

                       ****Iteration    1****
   Time for iteration     :  TOTAL=32.7 TRAFO=2.6 RIJ=4.3 COSX=21.4 XC=4.0
   Size of expansion space: 200
   Lowest Energy          :     0.047545260617
   Maximum Energy change  :     0.012816291133 (vector 45)
   Maximum residual norm  :     0.002690586976

                       ****Iteration    2****
   Time for iteration     :  TOTAL=33.3 TRAFO=2.7 RIJ=4.4 COSX=21.9 XC=4.1
   Size of expansion space: 250
   Lowest Energy          :     0.047537233446
   Maximum Energy change  :     0.007981784835 (vector 49)
   Maximum residual norm  :     0.000776145139

                       ****Iteration    3****
   Time for iteration     :  TOTAL=33.2 TRAFO=2.7 RIJ=4.3 COSX=21.7 XC=4.2
   Size of expansion space: 300
   Lowest Energy          :     0.047537175644
   Maximum Energy change  :     0.002266934004 (vector 37)
   Maximum residual norm  :     0.001231791689

                       ****Iteration    4****
   Time for iteration     :  TOTAL=33.1 TRAFO=2.7 RIJ=4.3 COSX=21.6 XC=4.2
   Size of expansion space: 350
   Lowest Energy          :     0.047537174011
   Maximum Energy change  :     0.002197497128 (vector 49)
   Maximum residual norm  :     0.000290504531

                       ****Iteration    5****
   Time for iteration     :  TOTAL=33.2 TRAFO=2.7 RIJ=4.3 COSX=21.7 XC=4.2
   Size of expansion space: 400
   Lowest Energy          :     0.047537173981
   Maximum Energy change  :     0.000801016982 (vector 34)
   Maximum residual norm  :     0.000331407399

                       ****Iteration    6****
   Time for iteration     :  TOTAL=33.2 TRAFO=2.6 RIJ=4.4 COSX=21.7 XC=4.2
   Size of expansion space: 450
   Lowest Energy          :     0.047537173980
   Maximum Energy change  :     0.001576034083 (vector 49)
   Maximum residual norm  :     0.000107827833

                       ****Iteration    7****
   Time for iteration     :  TOTAL=33.3 TRAFO=2.7 RIJ=4.4 COSX=21.7 XC=4.2
   Size of expansion space: 500
   Lowest Energy          :     0.047537173980
   Maximum Energy change  :     0.000289449294 (vector 47)
   Maximum residual norm  :     0.000020977642
   Rebuilding the expansion space

                       ****Iteration    8****
   Time for iteration     :  TOTAL=58.5 TRAFO=5.3 RIJ=7.7 COSX=36.9 XC=8.0
   Size of expansion space: 100
   Lowest Energy          :     0.047537159430
   Maximum Energy change  :     0.000040407697 (vector 47)
   Maximum residual norm  :     0.000004201498

                       ****Iteration    9****
   Time for iteration     :  TOTAL=33.4 TRAFO=2.7 RIJ=4.3 COSX=21.8 XC=4.3
   Size of expansion space: 150
   Lowest Energy          :     0.047537159430
   Maximum Energy change  :     0.000010170565 (vector 46)
   Maximum residual norm  :     0.000001107775

                       ****Iteration   10****
   Time for iteration     :  TOTAL=31.9 TRAFO=2.6 RIJ=4.1 COSX=20.9 XC=4.1
   Size of expansion space: 198
   Lowest Energy          :     0.047537159430
   Maximum Energy change  :     0.000003279593 (vector 46)
   Maximum residual norm  :     0.000000515130

                       ****Iteration   11****
   Time for iteration     :  TOTAL=31.8 TRAFO=2.6 RIJ=4.1 COSX=20.8 XC=4.1
   Size of expansion space: 246
   Lowest Energy          :     0.047537159430
   Maximum Energy change  :     0.000001662834 (vector 47)
   Maximum residual norm  :     0.000000280709

                       ****Iteration   12****
   Time for iteration     :  TOTAL=31.8 TRAFO=2.6 RIJ=4.1 COSX=20.7 XC=4.1
   Size of expansion space: 294
   Lowest Energy          :     0.047537159430
   Maximum Energy change  :     0.000000810238 (vector 47)
   Maximum residual norm  :     0.000000102349

      *** CONVERGENCE OF RESIDUAL NORM REACHED ***

Storing the converged CI vectors               ... TPA-OMe.cis1

                 *** DAVIDSON DONE ***

Total time for solving the CIS problem:   653.322sec

-------------------------
TD-DFT/TDA EXCITED STATES
-------------------------

the weight of the individual excitations are printed if larger than 1.0e-02

UHF/UKS reference: multiplicity estimated based on rounded <S**2> value, RELEVANCE IS LIMITED!

STATE  1:  E=   0.047537 au      1.294 eV    10433.2 cm**-1 <S**2> =   2.086272 Mult 3
   293b -> 328b  :     0.194675 (c= -0.44122045)
   294b -> 328b  :     0.800821 (c=  0.89488625)

STATE  2:  E=   0.047877 au      1.303 eV    10507.7 cm**-1 <S**2> =   2.086251 Mult 3
   292b -> 328b  :     0.990789 (c= -0.99538393)

STATE  3:  E=   0.053303 au      1.450 eV    11698.7 cm**-1 <S**2> =   1.869222 Mult 3
   327b -> 328b  :     0.985837 (c=  0.99289329)

STATE  4:  E=   0.080432 au      2.189 eV    17652.7 cm**-1 <S**2> =   1.373091 Mult 3
   323b -> 328b  :     0.010922 (c=  0.10450790)
   325b -> 328b  :     0.033437 (c= -0.18285773)
   326b -> 328b  :     0.947242 (c= -0.97326370)

STATE  5:  E=   0.094634 au      2.575 eV    20769.7 cm**-1 <S**2> =   1.439481 Mult 3
   325b -> 328b  :     0.945876 (c=  0.97256131)
   326b -> 328b  :     0.030287 (c= -0.17403290)

STATE  6:  E=   0.115198 au      3.135 eV    25283.1 cm**-1 <S**2> =   1.463905 Mult 3
   314b -> 329b  :     0.024238 (c=  0.15568632)
   315b -> 329b  :     0.093891 (c=  0.30641610)
   323b -> 329b  :     0.028608 (c=  0.16914012)
   324b -> 329b  :     0.027255 (c= -0.16509025)
   325b -> 329b  :     0.157878 (c=  0.39733901)
   326b -> 329b  :     0.453084 (c=  0.67311547)
   327b -> 329b  :     0.134091 (c=  0.36618431)

STATE  7:  E=   0.119825 au      3.261 eV    26298.6 cm**-1 <S**2> =   2.014327 Mult 3
   314b -> 328b  :     0.012685 (c=  0.11262828)
   320b -> 328b  :     0.013060 (c= -0.11428235)
   322b -> 328b  :     0.010430 (c= -0.10212642)
   323b -> 328b  :     0.600008 (c=  0.77460188)
   324b -> 328b  :     0.328234 (c= -0.57291711)
   326b -> 328b  :     0.011708 (c=  0.10820385)

STATE  8:  E=   0.125484 au      3.415 eV    27540.6 cm**-1 <S**2> =   2.067860 Mult 3
   313b -> 328b  :     0.018025 (c=  0.13425871)
   319b -> 328b  :     0.015102 (c= -0.12288958)
   320b -> 328b  :     0.269310 (c=  0.51895049)
   323b -> 328b  :     0.182317 (c= -0.42698612)
   324b -> 328b  :     0.494550 (c= -0.70324233)

STATE  9:  E=   0.130103 au      3.540 eV    28554.3 cm**-1 <S**2> =   2.067129 Mult 3
   313b -> 328b  :     0.036792 (c=  0.19181312)
   318b -> 328b  :     0.017377 (c= -0.13182317)
   319b -> 328b  :     0.025976 (c= -0.16117065)
   320b -> 328b  :     0.561752 (c=  0.74950109)
   322b -> 328b  :     0.016152 (c=  0.12709190)
   323b -> 328b  :     0.176709 (c=  0.42036758)
   324b -> 328b  :     0.144270 (c=  0.37982858)

STATE 10:  E=   0.136751 au      3.721 eV    30013.3 cm**-1 <S**2> =   2.085984 Mult 3
   310b -> 328b  :     0.010718 (c= -0.10352561)
   311b -> 328b  :     0.018972 (c= -0.13774005)
   313b -> 328b  :     0.142208 (c=  0.37710480)
   316b -> 328b  :     0.011211 (c=  0.10588180)
   318b -> 328b  :     0.270073 (c= -0.51968517)
   319b -> 328b  :     0.064808 (c=  0.25457338)
   321b -> 328b  :     0.080607 (c=  0.28391436)
   322b -> 328b  :     0.379253 (c= -0.61583520)

STATE 11:  E=   0.138375 au      3.765 eV    30369.8 cm**-1 <S**2> =   2.935675 Mult 3
   325a -> 328a  :     0.033805 (c= -0.18386245)
   325a -> 329a  :     0.067849 (c=  0.26047784)
   325a -> 331a  :     0.018507 (c=  0.13604087)
   326a -> 328a  :     0.020098 (c= -0.14176684)
   326a -> 329a  :     0.017104 (c= -0.13078087)
   327a -> 328a  :     0.427537 (c= -0.65386349)
   327a -> 329a  :     0.033731 (c= -0.18366029)
   327a -> 330a  :     0.112112 (c=  0.33483181)
   323b -> 331b  :     0.010254 (c= -0.10125963)
   326b -> 331b  :     0.020718 (c=  0.14393662)
   327b -> 330b  :     0.105659 (c=  0.32505300)

STATE 12:  E=   0.140602 au      3.826 eV    30858.5 cm**-1 <S**2> =   2.080154 Mult 3
   310b -> 328b  :     0.050457 (c= -0.22462595)
   311b -> 328b  :     0.010537 (c= -0.10264977)
   313b -> 328b  :     0.073847 (c= -0.27174719)
   314b -> 328b  :     0.092209 (c=  0.30365954)
   315b -> 328b  :     0.055711 (c= -0.23603274)
   318b -> 328b  :     0.221047 (c=  0.47015610)
   319b -> 328b  :     0.103583 (c= -0.32184389)
   320b -> 328b  :     0.035656 (c=  0.18882714)
   321b -> 328b  :     0.011292 (c=  0.10626228)
   322b -> 328b  :     0.304025 (c= -0.55138423)

STATE 13:  E=   0.144107 au      3.921 eV    31627.7 cm**-1 <S**2> =   2.742126 Mult 3
   317a -> 329a  :     0.010587 (c= -0.10289120)
   325a -> 328a  :     0.141475 (c= -0.37613138)
   325a -> 329a  :     0.010474 (c= -0.10234216)
   325a -> 330a  :     0.015326 (c=  0.12379963)
   326a -> 329a  :     0.053064 (c=  0.23035627)
   327a -> 328a  :     0.033017 (c= -0.18170687)
   327a -> 329a  :     0.356995 (c=  0.59749079)
   327a -> 331a  :     0.056260 (c=  0.23719256)
   323b -> 330b  :     0.018542 (c=  0.13617067)
   326b -> 330b  :     0.051710 (c= -0.22739911)
   327b -> 331b  :     0.095534 (c= -0.30908564)

STATE 14:  E=   0.145505 au      3.959 eV    31934.7 cm**-1 <S**2> =   2.088150 Mult 3
   307b -> 328b  :     0.015957 (c=  0.12632207)
   308b -> 328b  :     0.057760 (c=  0.24033247)
   309b -> 328b  :     0.163687 (c= -0.40458251)
   310b -> 328b  :     0.088088 (c=  0.29679585)
   312b -> 328b  :     0.163967 (c=  0.40492840)
   314b -> 328b  :     0.180528 (c= -0.42488569)
   315b -> 328b  :     0.282496 (c= -0.53150356)
   318b -> 328b  :     0.011926 (c=  0.10920499)
   322b -> 328b  :     0.018823 (c= -0.13719587)

STATE 15:  E=   0.147212 au      4.006 eV    32309.3 cm**-1 <S**2> =   2.084044 Mult 3
   308b -> 328b  :     0.059886 (c=  0.24471605)
   309b -> 328b  :     0.080575 (c= -0.28385707)
   311b -> 328b  :     0.056879 (c= -0.23849230)
   312b -> 328b  :     0.187575 (c=  0.43309970)
   314b -> 328b  :     0.203707 (c=  0.45133928)
   315b -> 328b  :     0.042655 (c=  0.20652980)
   318b -> 328b  :     0.065756 (c= -0.25642956)
   319b -> 328b  :     0.158889 (c= -0.39860823)
   321b -> 328b  :     0.097544 (c= -0.31232025)

STATE 16:  E=   0.149555 au      4.070 eV    32823.5 cm**-1 <S**2> =   2.079026 Mult 3
   307b -> 328b  :     0.021809 (c=  0.14767850)
   308b -> 328b  :     0.036230 (c=  0.19034251)
   309b -> 328b  :     0.061113 (c= -0.24720982)
   310b -> 328b  :     0.013616 (c=  0.11668739)
   312b -> 328b  :     0.020665 (c=  0.14375362)
   315b -> 328b  :     0.394019 (c=  0.62770922)
   316b -> 328b  :     0.106854 (c=  0.32688599)
   318b -> 328b  :     0.142605 (c=  0.37763139)
   319b -> 328b  :     0.091827 (c=  0.30303043)
   320b -> 328b  :     0.023098 (c=  0.15197946)
   321b -> 328b  :     0.045903 (c=  0.21425031)
   322b -> 328b  :     0.020131 (c= -0.14188229)

STATE 17:  E=   0.150171 au      4.086 eV    32958.6 cm**-1 <S**2> =   2.087465 Mult 3
   314b -> 328b  :     0.034096 (c=  0.18465063)
   315b -> 328b  :     0.024984 (c= -0.15806308)
   316b -> 328b  :     0.014367 (c= -0.11986414)
   317b -> 328b  :     0.102133 (c=  0.31958221)
   319b -> 328b  :     0.353426 (c=  0.59449666)
   320b -> 328b  :     0.030206 (c=  0.17379767)
   321b -> 328b  :     0.397850 (c= -0.63075348)
   322b -> 328b  :     0.011019 (c= -0.10497067)

STATE 18:  E=   0.151115 au      4.112 eV    33165.9 cm**-1 <S**2> =   2.076126 Mult 3
   308b -> 328b  :     0.030500 (c=  0.17464305)
   310b -> 328b  :     0.144385 (c= -0.37997977)
   311b -> 328b  :     0.123962 (c= -0.35208284)
   312b -> 328b  :     0.033249 (c=  0.18234358)
   314b -> 328b  :     0.040681 (c=  0.20169606)
   315b -> 328b  :     0.031623 (c= -0.17782899)
   316b -> 328b  :     0.017037 (c= -0.13052397)
   317b -> 328b  :     0.046632 (c=  0.21594328)
   319b -> 328b  :     0.057262 (c=  0.23929419)
   321b -> 328b  :     0.264815 (c=  0.51460164)
   322b -> 328b  :     0.183242 (c=  0.42806723)

STATE 19:  E=   0.154561 au      4.206 eV    33922.2 cm**-1 <S**2> =   2.011701 Mult 3
   282b -> 329b  :     0.022667 (c= -0.15055433)
   303b -> 329b  :     0.027869 (c= -0.16694001)
   314b -> 329b  :     0.106079 (c=  0.32569732)
   315b -> 329b  :     0.516991 (c=  0.71902076)
   321b -> 329b  :     0.022606 (c= -0.15035158)
   322b -> 329b  :     0.111583 (c=  0.33404037)
   325b -> 329b  :     0.015738 (c= -0.12545164)
   326b -> 329b  :     0.055901 (c= -0.23643316)
   327b -> 329b  :     0.033058 (c= -0.18181849)

STATE 20:  E=   0.155211 au      4.223 eV    34064.8 cm**-1 <S**2> =   2.086408 Mult 3
   309b -> 328b  :     0.048975 (c=  0.22130328)
   310b -> 328b  :     0.109614 (c= -0.33108028)
   311b -> 328b  :     0.058475 (c= -0.24181662)
   312b -> 328b  :     0.039728 (c=  0.19931865)
   313b -> 328b  :     0.030866 (c=  0.17568661)
   314b -> 328b  :     0.016651 (c= -0.12903800)
   315b -> 328b  :     0.032151 (c= -0.17930790)
   316b -> 328b  :     0.531867 (c=  0.72929183)
   317b -> 328b  :     0.040086 (c= -0.20021458)
   318b -> 328b  :     0.026128 (c=  0.16164178)
   321b -> 328b  :     0.039284 (c= -0.19820161)

STATE 21:  E=   0.157289 au      4.280 eV    34520.8 cm**-1 <S**2> =   2.090392 Mult 3
   309b -> 328b  :     0.010624 (c= -0.10307156)
   310b -> 328b  :     0.010053 (c=  0.10026486)
   311b -> 328b  :     0.014460 (c=  0.12025040)
   313b -> 328b  :     0.519872 (c= -0.72102127)
   314b -> 328b  :     0.033326 (c=  0.18255505)
   315b -> 328b  :     0.020519 (c= -0.14324365)
   316b -> 328b  :     0.145383 (c=  0.38129123)
   317b -> 328b  :     0.018093 (c= -0.13450883)
   318b -> 328b  :     0.174672 (c= -0.41793784)
   319b -> 328b  :     0.018245 (c=  0.13507405)
   320b -> 328b  :     0.026440 (c=  0.16260369)

STATE 22:  E=   0.157687 au      4.291 eV    34608.4 cm**-1 <S**2> =   2.087412 Mult 3
   310b -> 328b  :     0.159125 (c= -0.39890448)
   311b -> 328b  :     0.049682 (c= -0.22289461)
   312b -> 328b  :     0.024099 (c=  0.15524003)
   313b -> 328b  :     0.100364 (c= -0.31680280)
   314b -> 328b  :     0.246687 (c= -0.49667636)
   315b -> 328b  :     0.082288 (c=  0.28685960)
   316b -> 328b  :     0.119711 (c= -0.34599253)
   317b -> 328b  :     0.133857 (c= -0.36586499)
   318b -> 328b  :     0.010318 (c= -0.10157952)
   321b -> 328b  :     0.022877 (c= -0.15125023)
   322b -> 328b  :     0.017791 (c= -0.13338437)

STATE 23:  E=   0.158947 au      4.325 eV    34884.8 cm**-1 <S**2> =   2.726784 Mult 3
   324a -> 329a  :     0.010698 (c=  0.10343005)
   325a -> 329a  :     0.034545 (c=  0.18586262)
   327a -> 328a  :     0.151305 (c= -0.38897999)
   327a -> 329a  :     0.020044 (c= -0.14157702)
   323b -> 331b  :     0.017116 (c=  0.13082897)
   324b -> 330b  :     0.011904 (c= -0.10910570)
   326b -> 331b  :     0.064176 (c= -0.25333070)
   327b -> 330b  :     0.469873 (c= -0.68547294)
   327b -> 341b  :     0.020381 (c= -0.14276053)

STATE 24:  E=   0.160829 au      4.376 eV    35297.9 cm**-1 <S**2> =   2.087003 Mult 3
   309b -> 328b  :     0.017781 (c=  0.13334468)
   310b -> 328b  :     0.029042 (c= -0.17041800)
   311b -> 328b  :     0.014223 (c=  0.11925902)
   312b -> 328b  :     0.042129 (c=  0.20525341)
   313b -> 328b  :     0.032824 (c= -0.18117399)
   314b -> 328b  :     0.082583 (c= -0.28737322)
   315b -> 328b  :     0.021191 (c=  0.14557245)
   316b -> 328b  :     0.015881 (c=  0.12601788)
   317b -> 328b  :     0.604141 (c=  0.77726494)
   318b -> 328b  :     0.035266 (c= -0.18779171)
   319b -> 328b  :     0.075970 (c= -0.27562603)
   322b -> 328b  :     0.017348 (c= -0.13171282)

STATE 25:  E=   0.162763 au      4.429 eV    35722.5 cm**-1 <S**2> =   2.528086 Mult 3
   316a -> 332a  :     0.012433 (c= -0.11150325)
   319a -> 328a  :     0.019892 (c=  0.14103749)
   323a -> 328a  :     0.502556 (c=  0.70891190)
   323a -> 329a  :     0.105193 (c= -0.32433445)
   323a -> 330a  :     0.021811 (c=  0.14768459)
   323a -> 331a  :     0.010977 (c=  0.10477262)
   323b -> 332b  :     0.013582 (c= -0.11654139)
   325b -> 332b  :     0.069643 (c=  0.26389870)
   326b -> 332b  :     0.040926 (c= -0.20230284)
   327b -> 332b  :     0.015690 (c=  0.12525941)

STATE 26:  E=   0.163179 au      4.440 eV    35813.7 cm**-1 <S**2> =   2.079008 Mult 3
   306b -> 328b  :     0.012302 (c=  0.11091285)
   309b -> 328b  :     0.386134 (c=  0.62139659)
   310b -> 328b  :     0.033518 (c=  0.18307785)
   311b -> 328b  :     0.098342 (c=  0.31359508)
   312b -> 328b  :     0.358201 (c=  0.59849875)
   314b -> 328b  :     0.022093 (c=  0.14863713)
   316b -> 328b  :     0.014240 (c= -0.11933072)
   317b -> 328b  :     0.026980 (c= -0.16425626)
   319b -> 328b  :     0.016104 (c=  0.12689989)
   321b -> 328b  :     0.014860 (c=  0.12190270)

STATE 27:  E=   0.164161 au      4.467 eV    36029.1 cm**-1 <S**2> =   2.599501 Mult 3
   324a -> 328a  :     0.091693 (c= -0.30280843)
   324a -> 329a  :     0.401844 (c= -0.63391154)
   324a -> 330a  :     0.011306 (c= -0.10632925)
   324a -> 333a  :     0.020050 (c= -0.14159805)
   325a -> 329a  :     0.016691 (c= -0.12919420)
   327a -> 328a  :     0.019831 (c= -0.14082236)
   325b -> 333b  :     0.027392 (c=  0.16550389)
   326b -> 331b  :     0.010085 (c= -0.10042420)
   326b -> 333b  :     0.076043 (c=  0.27575867)
   327b -> 330b  :     0.011397 (c= -0.10675773)
   327b -> 333b  :     0.018677 (c=  0.13666408)

STATE 28:  E=   0.164807 au      4.485 eV    36171.0 cm**-1 <S**2> =   2.083610 Mult 3
   308b -> 328b  :     0.185640 (c=  0.43086017)
   309b -> 328b  :     0.026807 (c= -0.16372844)
   310b -> 328b  :     0.264370 (c= -0.51416921)
   311b -> 328b  :     0.479071 (c=  0.69214945)
   313b -> 328b  :     0.016256 (c=  0.12750088)

STATE 29:  E=   0.166085 au      4.519 eV    36451.4 cm**-1 <S**2> =   2.700664 Mult 3
   316a -> 328a  :     0.016878 (c=  0.12991694)
   316a -> 329a  :     0.049425 (c= -0.22231629)
   317a -> 328a  :     0.073511 (c= -0.27112821)
   319a -> 328a  :     0.014588 (c=  0.12078239)
   320a -> 329a  :     0.014511 (c= -0.12046100)
   321a -> 328a  :     0.046504 (c=  0.21564807)
   322a -> 328a  :     0.044447 (c= -0.21082356)
   323a -> 332a  :     0.010357 (c= -0.10176713)
   324a -> 329a  :     0.011582 (c=  0.10762189)
   325a -> 328a  :     0.046353 (c=  0.21529754)
   325a -> 329a  :     0.046526 (c= -0.21569831)
   326a -> 328a  :     0.010527 (c=  0.10260187)
   327a -> 328a  :     0.036629 (c= -0.19138769)
   327a -> 329a  :     0.013722 (c= -0.11713987)
   327a -> 330a  :     0.083745 (c=  0.28938693)
   327a -> 341a  :     0.012884 (c= -0.11350553)
   321b -> 332b  :     0.010348 (c=  0.10172281)
   325b -> 330b  :     0.059593 (c= -0.24411630)
   326b -> 331b  :     0.079697 (c= -0.28230650)
   326b -> 333b  :     0.010056 (c= -0.10027983)
   327b -> 331b  :     0.020472 (c= -0.14307987)
   327b -> 341b  :     0.013455 (c=  0.11599772)

STATE 30:  E=   0.168135 au      4.575 eV    36901.4 cm**-1 <S**2> =   2.871014 Mult 3
   316a -> 328a  :     0.015128 (c= -0.12299640)
   316a -> 329a  :     0.017714 (c= -0.13309385)
   317a -> 329a  :     0.026269 (c= -0.16207814)
   318a -> 329a  :     0.012911 (c= -0.11362876)
   320a -> 329a  :     0.017022 (c= -0.13046778)
   325a -> 330a  :     0.036989 (c= -0.19232574)
   326a -> 329a  :     0.016283 (c=  0.12760599)
   327a -> 328a  :     0.028373 (c= -0.16844179)
   327a -> 329a  :     0.156822 (c=  0.39600785)
   327a -> 331a  :     0.029969 (c= -0.17311670)
   323b -> 330b  :     0.030036 (c= -0.17330862)
   325b -> 330b  :     0.014096 (c= -0.11872721)
   326b -> 330b  :     0.082469 (c=  0.28717500)
   326b -> 333b  :     0.012043 (c= -0.10973842)
   327b -> 331b  :     0.230604 (c=  0.48021264)
   327b -> 342b  :     0.026259 (c= -0.16204623)

STATE 31:  E=   0.169258 au      4.606 eV    37147.8 cm**-1 <S**2> =   2.626697 Mult 3
   316a -> 328a  :     0.076993 (c= -0.27747668)
   316a -> 329a  :     0.019869 (c= -0.14095807)
   317a -> 329a  :     0.062367 (c= -0.24973472)
   318a -> 329a  :     0.014671 (c= -0.12112367)
   320a -> 329a  :     0.016791 (c= -0.12958118)
   321a -> 328a  :     0.016340 (c= -0.12782748)
   321a -> 329a  :     0.012760 (c=  0.11295797)
   322a -> 328a  :     0.010178 (c=  0.10088790)
   322a -> 329a  :     0.013829 (c= -0.11759570)
   324a -> 329a  :     0.011645 (c= -0.10791151)
   325a -> 328a  :     0.034623 (c= -0.18607222)
   326a -> 329a  :     0.014882 (c=  0.12199352)
   327a -> 328a  :     0.024154 (c=  0.15541646)
   327a -> 329a  :     0.168526 (c= -0.41051932)
   327a -> 331a  :     0.030241 (c= -0.17390012)
   321b -> 332b  :     0.010597 (c= -0.10294282)
   325b -> 331b  :     0.058906 (c= -0.24270482)
   326b -> 330b  :     0.072497 (c= -0.26925336)
   326b -> 331b  :     0.012328 (c= -0.11103335)
   326b -> 341b  :     0.014476 (c=  0.12031490)
   327b -> 331b  :     0.011758 (c= -0.10843513)
   327b -> 342b  :     0.012065 (c= -0.10983983)

STATE 32:  E=   0.170080 au      4.628 eV    37328.3 cm**-1 <S**2> =   2.083881 Mult 3
   308b -> 328b  :     0.599968 (c= -0.77457602)
   309b -> 328b  :     0.166079 (c= -0.40752788)
   310b -> 328b  :     0.060223 (c= -0.24540344)
   311b -> 328b  :     0.044144 (c=  0.21010501)
   312b -> 328b  :     0.086622 (c=  0.29431566)
   314b -> 328b  :     0.012082 (c=  0.10991608)

STATE 33:  E=   0.172463 au      4.693 eV    37851.2 cm**-1 <S**2> =   2.005489 Mult 3
   307b -> 329b  :     0.019103 (c= -0.13821411)
   312b -> 329b  :     0.060229 (c=  0.24541496)
   314b -> 329b  :     0.024745 (c= -0.15730506)
   315b -> 329b  :     0.010896 (c= -0.10438539)
   316b -> 329b  :     0.012329 (c= -0.11103779)
   318b -> 329b  :     0.010818 (c= -0.10401130)
   321b -> 329b  :     0.060541 (c= -0.24605095)
   322b -> 329b  :     0.328288 (c=  0.57296411)
   323b -> 329b  :     0.080678 (c= -0.28403838)
   324b -> 329b  :     0.048238 (c=  0.21963214)
   326b -> 329b  :     0.013297 (c=  0.11531408)
   327b -> 329b  :     0.249041 (c=  0.49904056)

STATE 34:  E=   0.177966 au      4.843 eV    39059.1 cm**-1 <S**2> =   2.907268 Mult 3
   307a -> 329a  :     0.022543 (c= -0.15014471)
   311a -> 328a  :     0.014293 (c=  0.11955336)
   313a -> 328a  :     0.139030 (c= -0.37286679)
   314a -> 329a  :     0.011049 (c=  0.10511188)
   316a -> 328a  :     0.020083 (c=  0.14171398)
   316a -> 329a  :     0.106925 (c= -0.32699332)
   317a -> 328a  :     0.019756 (c= -0.14055426)
   317a -> 330a  :     0.011837 (c= -0.10879787)
   323a -> 332a  :     0.021176 (c= -0.14552127)
   324a -> 329a  :     0.012013 (c= -0.10960354)
   324a -> 333a  :     0.010091 (c= -0.10045503)
   325a -> 328a  :     0.013817 (c= -0.11754696)
   325a -> 329a  :     0.016753 (c=  0.12943208)
   327a -> 330a  :     0.072252 (c= -0.26879788)
   327a -> 341a  :     0.016561 (c=  0.12868840)
   314b -> 330b  :     0.013633 (c= -0.11676150)
   321b -> 332b  :     0.020237 (c=  0.14225546)
   325b -> 330b  :     0.014602 (c=  0.12083866)
   325b -> 341b  :     0.011947 (c=  0.10930135)
   326b -> 331b  :     0.010627 (c=  0.10308549)
   327b -> 351b  :     0.014374 (c=  0.11989169)

STATE 35:  E=   0.179291 au      4.879 eV    39349.8 cm**-1 <S**2> =   3.157392 Mult 3
   307a -> 328a  :     0.021212 (c= -0.14564189)
   311a -> 329a  :     0.021074 (c=  0.14516947)
   313a -> 329a  :     0.090874 (c= -0.30145331)
   316a -> 328a  :     0.065148 (c= -0.25524147)
   316a -> 329a  :     0.017508 (c= -0.13231611)
   317a -> 329a  :     0.013071 (c= -0.11432874)
   323a -> 332a  :     0.011283 (c=  0.10621917)
   324a -> 333a  :     0.011253 (c= -0.10607801)
   325a -> 328a  :     0.045712 (c=  0.21380411)
   326a -> 329a  :     0.021735 (c= -0.14742699)
   327a -> 329a  :     0.022470 (c=  0.14989897)
   327a -> 331a  :     0.036984 (c=  0.19231233)
   327a -> 341a  :     0.014381 (c= -0.11991875)
   327a -> 342a  :     0.031859 (c= -0.17849023)
   327a -> 344a  :     0.011537 (c=  0.10741040)
   321b -> 332b  :     0.010669 (c= -0.10329207)
   322b -> 333b  :     0.010981 (c= -0.10479026)
   325b -> 342b  :     0.021154 (c= -0.14544546)
   327b -> 342b  :     0.012100 (c=  0.10999824)
   327b -> 347b  :     0.012519 (c= -0.11188819)
   327b -> 348b  :     0.018625 (c= -0.13647425)

STATE 36:  E=   0.180507 au      4.912 eV    39616.8 cm**-1 <S**2> =   2.482990 Mult 3
   317a -> 328a  :     0.055514 (c=  0.23561454)
   319a -> 328a  :     0.088119 (c= -0.29684879)
   319a -> 329a  :     0.018697 (c=  0.13673758)
   319a -> 332a  :     0.019106 (c= -0.13822348)
   321a -> 328a  :     0.331660 (c=  0.57589930)
   321a -> 329a  :     0.067249 (c= -0.25932437)
   321a -> 330a  :     0.013472 (c=  0.11607104)
   321a -> 332a  :     0.019452 (c=  0.13946869)
   322a -> 328a  :     0.070547 (c= -0.26560659)
   322a -> 329a  :     0.013972 (c=  0.11820498)
   323a -> 328a  :     0.020025 (c=  0.14150888)
   325b -> 330b  :     0.010279 (c=  0.10138341)
   325b -> 331b  :     0.010516 (c= -0.10254728)
   325b -> 338b  :     0.016671 (c=  0.12911534)
   326b -> 338b  :     0.010648 (c= -0.10319072)

STATE 37:  E=   0.181595 au      4.941 eV    39855.5 cm**-1 <S**2> =   2.453102 Mult 3
   316a -> 328a  :     0.011944 (c= -0.10928997)
   317a -> 328a  :     0.063170 (c=  0.25133660)
   317a -> 329a  :     0.012734 (c= -0.11284319)
   318a -> 328a  :     0.034701 (c=  0.18628080)
   319a -> 328a  :     0.408877 (c=  0.63943478)
   319a -> 329a  :     0.085429 (c= -0.29228312)
   319a -> 330a  :     0.017037 (c=  0.13052694)
   319a -> 332a  :     0.018497 (c= -0.13600494)
   321a -> 328a  :     0.026046 (c=  0.16138871)
   321a -> 332a  :     0.017128 (c= -0.13087309)
   323a -> 328a  :     0.034743 (c= -0.18639593)
   325b -> 334b  :     0.023279 (c= -0.15257608)
   326b -> 334b  :     0.015764 (c=  0.12555406)

STATE 38:  E=   0.182713 au      4.972 eV    40100.8 cm**-1 <S**2> =   2.497132 Mult 3
   317a -> 328a  :     0.016496 (c=  0.12843819)
   317a -> 329a  :     0.066370 (c=  0.25762398)
   318a -> 328a  :     0.079737 (c= -0.28237790)
   318a -> 329a  :     0.388601 (c= -0.62337910)
   318a -> 330a  :     0.015736 (c= -0.12544408)
   318a -> 331a  :     0.013115 (c=  0.11452286)
   318a -> 333a  :     0.034233 (c=  0.18502235)
   324a -> 329a  :     0.036479 (c= -0.19099560)
   327a -> 329a  :     0.014876 (c= -0.12196766)
   325b -> 335b  :     0.010802 (c= -0.10393070)
   326b -> 331b  :     0.010320 (c=  0.10158875)
   326b -> 333b  :     0.011810 (c= -0.10867540)
   326b -> 335b  :     0.027407 (c= -0.16555045)
   326b -> 337b  :     0.013923 (c=  0.11799405)

STATE 39:  E=   0.183238 au      4.986 eV    40216.1 cm**-1 <S**2> =   2.898887 Mult 3
   312a -> 329a  :     0.019035 (c= -0.13796827)
   313a -> 328a  :     0.010607 (c=  0.10299163)
   313a -> 329a  :     0.019616 (c=  0.14005663)
   315a -> 329a  :     0.018972 (c=  0.13773962)
   318a -> 329a  :     0.024209 (c=  0.15559163)
   325a -> 329a  :     0.016360 (c= -0.12790593)
   326a -> 329a  :     0.013753 (c=  0.11727399)
   327a -> 328a  :     0.019371 (c= -0.13917940)
   327a -> 329a  :     0.032464 (c= -0.18017789)
   327a -> 336a  :     0.013117 (c= -0.11453046)
   327a -> 340a  :     0.011753 (c= -0.10841007)
   323b -> 337b  :     0.011245 (c= -0.10604355)
   326b -> 331b  :     0.019584 (c=  0.13994168)
   326b -> 333b  :     0.029757 (c= -0.17250210)
   326b -> 335b  :     0.106786 (c=  0.32678111)
   326b -> 337b  :     0.022675 (c=  0.15058268)
   327b -> 333b  :     0.028151 (c= -0.16778301)
   327b -> 334b  :     0.049373 (c=  0.22219931)
   327b -> 335b  :     0.107272 (c=  0.32752473)
   327b -> 336b  :     0.040118 (c= -0.20029527)
   327b -> 337b  :     0.019240 (c=  0.13870780)
   327b -> 339b  :     0.015724 (c= -0.12539367)

STATE 40:  E=   0.184131 au      5.010 eV    40412.2 cm**-1 <S**2> =   2.776762 Mult 3
   311a -> 328a  :     0.011657 (c= -0.10796691)
   312a -> 328a  :     0.022048 (c= -0.14848734)
   317a -> 328a  :     0.016908 (c=  0.13003261)
   317a -> 329a  :     0.014032 (c= -0.11845845)
   323a -> 328a  :     0.025268 (c=  0.15895896)
   325a -> 328a  :     0.042993 (c= -0.20734704)
   327a -> 328a  :     0.035574 (c=  0.18861023)
   327a -> 329a  :     0.021216 (c= -0.14565577)
   327a -> 330a  :     0.010865 (c=  0.10423462)
   327a -> 331a  :     0.012247 (c=  0.11066645)
   327a -> 341a  :     0.010107 (c= -0.10053345)
   323b -> 334b  :     0.011786 (c= -0.10856503)
   325b -> 330b  :     0.014009 (c= -0.11836116)
   325b -> 331b  :     0.036905 (c=  0.19210754)
   325b -> 332b  :     0.037641 (c= -0.19401379)
   325b -> 334b  :     0.025329 (c= -0.15914943)
   326b -> 330b  :     0.035755 (c=  0.18908923)
   326b -> 332b  :     0.036222 (c=  0.19032120)
   326b -> 334b  :     0.059442 (c=  0.24380646)
   326b -> 336b  :     0.014442 (c= -0.12017516)
   327b -> 332b  :     0.030867 (c= -0.17569040)
   327b -> 334b  :     0.063450 (c= -0.25189204)
   327b -> 335b  :     0.017225 (c=  0.13124228)
   327b -> 336b  :     0.020944 (c=  0.14472045)
   327b -> 337b  :     0.021691 (c=  0.14727746)
   327b -> 342b  :     0.012266 (c=  0.11075077)

STATE 41:  E=   0.185511 au      5.048 eV    40714.9 cm**-1 <S**2> =   2.073954 Mult 3
   282b -> 328b  :     0.012709 (c= -0.11273600)
   288b -> 328b  :     0.025752 (c= -0.16047542)
   298b -> 328b  :     0.050937 (c=  0.22569241)
   301b -> 328b  :     0.056050 (c=  0.23674870)
   302b -> 328b  :     0.108178 (c=  0.32890481)
   303b -> 328b  :     0.431905 (c=  0.65719489)
   306b -> 328b  :     0.053225 (c= -0.23070650)
   307b -> 328b  :     0.191535 (c= -0.43764673)

STATE 42:  E=   0.186773 au      5.082 eV    40992.0 cm**-1 <S**2> =   3.060064 Mult 3
   311a -> 329a  :     0.012079 (c=  0.10990616)
   315a -> 328a  :     0.027921 (c=  0.16709509)
   315a -> 329a  :     0.133640 (c=  0.36556794)
   315a -> 333a  :     0.019938 (c=  0.14120272)
   317a -> 328a  :     0.010408 (c= -0.10202071)
   318a -> 329a  :     0.011777 (c=  0.10852411)
   324a -> 328a  :     0.018713 (c= -0.13679379)
   324a -> 329a  :     0.044399 (c= -0.21071040)
   325a -> 328a  :     0.024031 (c=  0.15502020)
   326a -> 340a  :     0.011573 (c= -0.10757842)
   327a -> 328a  :     0.023580 (c= -0.15355758)
   327a -> 330a  :     0.010926 (c= -0.10452858)
   327a -> 336a  :     0.013366 (c=  0.11561067)
   327a -> 340a  :     0.051612 (c=  0.22718347)
   324b -> 346b  :     0.011885 (c=  0.10901614)
   325b -> 333b  :     0.012668 (c= -0.11255177)
   325b -> 339b  :     0.012412 (c= -0.11141078)
   325b -> 340b  :     0.010190 (c=  0.10094672)
   326b -> 333b  :     0.034732 (c= -0.18636566)
   326b -> 340b  :     0.013400 (c=  0.11575863)
   327b -> 334b  :     0.019608 (c= -0.14002912)
   327b -> 336b  :     0.023787 (c=  0.15422903)
   327b -> 339b  :     0.053769 (c=  0.23188200)
   327b -> 341b  :     0.021101 (c= -0.14526281)

STATE 43:  E=   0.187484 au      5.102 eV    41148.1 cm**-1 <S**2> =   2.819290 Mult 3
   311a -> 329a  :     0.023617 (c= -0.15367673)
   312a -> 329a  :     0.011607 (c=  0.10773490)
   315a -> 328a  :     0.029630 (c=  0.17213243)
   315a -> 329a  :     0.140842 (c=  0.37528926)
   315a -> 333a  :     0.018551 (c=  0.13620133)
   317a -> 329a  :     0.025004 (c= -0.15812590)
   318a -> 329a  :     0.012174 (c=  0.11033759)
   323a -> 328a  :     0.012972 (c= -0.11389363)
   324a -> 329a  :     0.012395 (c= -0.11133212)
   325a -> 328a  :     0.026871 (c= -0.16392517)
   327a -> 329a  :     0.015411 (c= -0.12414001)
   325b -> 332b  :     0.020011 (c=  0.14146156)
   326b -> 332b  :     0.016463 (c= -0.12830960)
   326b -> 334b  :     0.012371 (c= -0.11122639)
   326b -> 335b  :     0.017660 (c= -0.13288961)
   326b -> 336b  :     0.016278 (c=  0.12758331)
   326b -> 337b  :     0.023459 (c= -0.15316295)
   326b -> 340b  :     0.014078 (c=  0.11865260)
   327b -> 332b  :     0.010294 (c=  0.10145776)
   327b -> 335b  :     0.040759 (c= -0.20188796)
   327b -> 337b  :     0.039719 (c= -0.19929690)

STATE 44:  E=   0.188013 au      5.116 eV    41264.1 cm**-1 <S**2> =   2.495251 Mult 3
   310a -> 329a  :     0.012639 (c=  0.11242390)
   311a -> 329a  :     0.013676 (c= -0.11694407)
   315a -> 329a  :     0.018282 (c= -0.13521143)
   316a -> 329a  :     0.026706 (c= -0.16341901)
   317a -> 328a  :     0.029067 (c= -0.17048910)
   317a -> 329a  :     0.021971 (c= -0.14822461)
   320a -> 329a  :     0.017615 (c= -0.13272275)
   324a -> 329a  :     0.025353 (c=  0.15922621)
   325a -> 329a  :     0.038117 (c= -0.19523569)
   325a -> 331a  :     0.013536 (c= -0.11634589)
   326a -> 328a  :     0.019166 (c=  0.13844023)
   326a -> 329a  :     0.020745 (c=  0.14403254)
   327a -> 328a  :     0.090235 (c= -0.30039180)
   327a -> 329a  :     0.052305 (c= -0.22870178)
   327a -> 330a  :     0.082185 (c= -0.28667989)
   327a -> 342a  :     0.011091 (c= -0.10531252)
   325b -> 330b  :     0.021650 (c=  0.14713819)
   325b -> 333b  :     0.014218 (c=  0.11923737)
   326b -> 331b  :     0.040223 (c=  0.20055605)
   326b -> 333b  :     0.050577 (c=  0.22489326)
   327b -> 329b  :     0.015992 (c= -0.12646124)
   327b -> 330b  :     0.013824 (c=  0.11757693)
   327b -> 333b  :     0.026583 (c=  0.16304200)

STATE 45:  E=   0.188491 au      5.129 eV    41368.9 cm**-1 <S**2> =   2.690107 Mult 3
   315a -> 329a  :     0.023801 (c=  0.15427460)
   319a -> 328a  :     0.049723 (c=  0.22298560)
   319a -> 329a  :     0.011922 (c= -0.10918577)
   323a -> 328a  :     0.109096 (c=  0.33029671)
   323a -> 329a  :     0.017929 (c= -0.13389972)
   327a -> 340a  :     0.019529 (c= -0.13974765)
   317b -> 338b  :     0.015767 (c= -0.12556840)
   323b -> 332b  :     0.017898 (c=  0.13378308)
   325b -> 332b  :     0.147308 (c= -0.38380717)
   326b -> 330b  :     0.011869 (c= -0.10894705)
   326b -> 332b  :     0.088986 (c=  0.29830473)
   326b -> 336b  :     0.015003 (c=  0.12248779)
   327b -> 329b  :     0.017314 (c= -0.13158350)
   327b -> 332b  :     0.037112 (c= -0.19264430)
   327b -> 334b  :     0.012969 (c=  0.11388161)
   327b -> 336b  :     0.011283 (c= -0.10622113)
   327b -> 339b  :     0.020541 (c= -0.14332179)

STATE 46:  E=   0.188899 au      5.140 eV    41458.6 cm**-1 <S**2> =   2.066952 Mult 3
   307b -> 329b  :     0.015244 (c= -0.12346828)
   312b -> 329b  :     0.015541 (c=  0.12466191)
   315b -> 329b  :     0.022425 (c= -0.14974995)
   318b -> 329b  :     0.016870 (c= -0.12988477)
   321b -> 329b  :     0.020398 (c= -0.14282110)
   322b -> 329b  :     0.096128 (c=  0.31004498)
   325b -> 329b  :     0.064989 (c=  0.25492869)
   326b -> 329b  :     0.124610 (c=  0.35300082)
   327b -> 329b  :     0.465256 (c= -0.68209654)

STATE 47:  E=   0.190327 au      5.179 eV    41771.9 cm**-1 <S**2> =   3.052014 Mult 3
   313a -> 329a  :     0.012990 (c=  0.11397530)
   316a -> 328a  :     0.026603 (c=  0.16310365)
   325a -> 328a  :     0.027194 (c=  0.16490502)
   325a -> 330a  :     0.024872 (c= -0.15770726)
   327a -> 328a  :     0.022745 (c= -0.15081514)
   327a -> 330a  :     0.018371 (c= -0.13553785)
   327a -> 331a  :     0.036712 (c= -0.19160494)
   327a -> 340a  :     0.016679 (c= -0.12914603)
   327a -> 348a  :     0.015403 (c= -0.12410919)
   323b -> 330b  :     0.015715 (c= -0.12535850)
   324b -> 331b  :     0.011830 (c=  0.10876432)
   325b -> 331b  :     0.044163 (c= -0.21014968)
   325b -> 334b  :     0.022749 (c= -0.15082911)
   326b -> 330b  :     0.045804 (c= -0.21401802)
   326b -> 334b  :     0.023923 (c=  0.15466967)
   326b -> 337b  :     0.011394 (c= -0.10674254)
   327b -> 334b  :     0.037039 (c= -0.19245437)
   327b -> 336b  :     0.012399 (c=  0.11134971)
   327b -> 339b  :     0.013257 (c= -0.11513892)
   327b -> 348b  :     0.010960 (c= -0.10469046)
   327b -> 353b  :     0.014338 (c= -0.11973979)

STATE 48:  E=   0.191275 au      5.205 eV    41980.0 cm**-1 <S**2> =   3.157667 Mult 3
   310a -> 328a  :     0.010021 (c= -0.10010492)
   311a -> 328a  :     0.018983 (c= -0.13777913)
   312a -> 329a  :     0.014239 (c=  0.11932847)
   313a -> 329a  :     0.017642 (c= -0.13282270)
   315a -> 328a  :     0.015860 (c=  0.12593586)
   315a -> 329a  :     0.067717 (c=  0.26022455)
   316a -> 329a  :     0.025923 (c= -0.16100608)
   324a -> 329a  :     0.014439 (c=  0.12016121)
   326a -> 345a  :     0.012117 (c= -0.11007727)
   327a -> 336a  :     0.013834 (c= -0.11761603)
   327a -> 340a  :     0.066188 (c= -0.25727115)
   327a -> 342a  :     0.014526 (c=  0.12052515)
   327a -> 348a  :     0.010935 (c=  0.10457197)
   324b -> 348b  :     0.010366 (c= -0.10181505)
   325b -> 333b  :     0.021720 (c=  0.14737611)
   325b -> 334b  :     0.020195 (c= -0.14211026)
   326b -> 333b  :     0.060688 (c=  0.24634870)
   326b -> 334b  :     0.016125 (c=  0.12698339)
   327b -> 333b  :     0.017452 (c=  0.13210531)
   327b -> 339b  :     0.079974 (c= -0.28279664)
   327b -> 342b  :     0.016325 (c= -0.12776966)
   327b -> 347b  :     0.010582 (c=  0.10286730)

STATE 49:  E=   0.191988 au      5.224 eV    42136.4 cm**-1 <S**2> =   2.037040 Mult 3
   303b -> 328b  :     0.159127 (c= -0.39890706)
   305b -> 328b  :     0.219356 (c=  0.46835481)
   307b -> 328b  :     0.515572 (c= -0.71803353)
   308b -> 328b  :     0.010419 (c=  0.10207363)

STATE 50:  E=   0.192634 au      5.242 eV    42278.3 cm**-1 <S**2> =   2.805844 Mult 3
   311a -> 328a  :     0.013862 (c=  0.11773708)
   315a -> 328a  :     0.020929 (c=  0.14466941)
   315a -> 329a  :     0.099663 (c=  0.31569492)
   318a -> 329a  :     0.025002 (c= -0.15812026)
   324a -> 329a  :     0.028016 (c=  0.16737999)
   327a -> 329a  :     0.012303 (c=  0.11091954)
   327a -> 330a  :     0.030067 (c=  0.17339803)
   327a -> 331a  :     0.010407 (c= -0.10201686)
   327a -> 340a  :     0.037162 (c=  0.19277567)
   325b -> 333b  :     0.024480 (c=  0.15646142)
   326b -> 333b  :     0.067234 (c=  0.25929566)
   326b -> 335b  :     0.048870 (c=  0.22106603)
   326b -> 337b  :     0.020390 (c=  0.14279420)
   327b -> 333b  :     0.021669 (c=  0.14720522)
   327b -> 335b  :     0.025602 (c=  0.16000708)
   327b -> 337b  :     0.010246 (c=  0.10122066)
   327b -> 339b  :     0.039514 (c=  0.19878034)

Storing amplitudes in GBW file ... 
... GBW file created

-----------------------------
TD-DFT/TDA-EXCITATION SPECTRA
-----------------------------

Center of mass = ( -0.4558, -0.1472, -0.0027)
Generating CIS transition densities           ... done

UHF/UKS reference: multiplicity estimated based on rounded <S**2> value, use it judiciously!

----------------------------------------------------------------------------------------------------
                     ABSORPTION SPECTRUM VIA TRANSITION ELECTRIC DIPOLE MOMENTS    
----------------------------------------------------------------------------------------------------
     Transition      Energy     Energy  Wavelength fosc(D2)      D2        DX        DY        DZ   
                      (eV)      (cm-1)    (nm)                 (au**2)    (au)      (au)      (au)  
----------------------------------------------------------------------------------------------------
  0-1A  ->  1-3A    1.293552   10433.2   958.5   0.000000285   0.00001   0.00292  -0.00005  -0.00067
  0-1A  ->  2-3A    1.302786   10507.7   951.7   0.000001396   0.00004   0.00270   0.00393   0.00458
  0-1A  ->  3-3A    1.450451   11698.7   854.8   0.000014135   0.00040   0.01123  -0.01591  -0.00432
  0-1A  ->  4-3A    2.188662   17652.7   566.5   0.000017047   0.00032  -0.01099  -0.01079  -0.00899
  0-1A  ->  5-3A    2.575114   20769.7   481.5   0.000022414   0.00036   0.01713   0.00680   0.00395
  0-1A  ->  6-3A    3.134702   25283.1   395.5   0.000785483   0.01023  -0.09661  -0.00226  -0.02983
  0-1A  ->  7-3A    3.260615   26298.6   380.2   0.000011252   0.00014   0.01104  -0.00291   0.00325
  0-1A  ->  8-3A    3.414601   27540.6   363.1   0.000007417   0.00009  -0.00243  -0.00856  -0.00309
  0-1A  ->  9-3A    3.540281   28554.3   350.2   0.000011428   0.00013   0.00035  -0.01034  -0.00498
  0-1A  -> 10-3A    3.721180   30013.3   333.2   0.000002844   0.00003   0.00251  -0.00497  -0.00041
  0-1A  -> 11-3A    3.765372   30369.8   329.3   0.270497960   2.93223   1.70935   0.08527   0.05563
  0-1A  -> 12-3A    3.825970   30858.5   324.1   0.000000589   0.00001  -0.00103  -0.00166   0.00158
  0-1A  -> 13-3A    3.921340   31627.7   316.2   0.057422620   0.59771  -0.01541   0.77277  -0.01708
  0-1A  -> 14-3A    3.959399   31934.7   313.1   0.000000365   0.00000  -0.00041   0.00133   0.00135
  0-1A  -> 15-3A    4.005838   32309.3   309.5   0.000013500   0.00014  -0.00837  -0.00758  -0.00316
  0-1A  -> 16-3A    4.069600   32823.5   304.7   0.000041257   0.00041   0.01661   0.00858   0.00801
  0-1A  -> 17-3A    4.086351   32958.6   303.4   0.000004583   0.00005  -0.00611  -0.00195  -0.00215
  0-1A  -> 18-3A    4.112048   33165.9   301.5   0.000026375   0.00026  -0.01508  -0.00408  -0.00421
  0-1A  -> 19-3A    4.205820   33922.2   294.8   0.002108118   0.02046  -0.13755   0.02423  -0.03084
  0-1A  -> 20-3A    4.223499   34064.8   293.6   0.000000767   0.00001  -0.00203   0.00181   0.00009
  0-1A  -> 21-3A    4.280039   34520.8   289.7   0.000004677   0.00004   0.00657   0.00016   0.00121
  0-1A  -> 22-3A    4.290893   34608.4   288.9   0.000001042   0.00001  -0.00204   0.00238   0.00029
  0-1A  -> 23-3A    4.325164   34884.8   286.7   1.535544080  14.49111   3.80619   0.03667   0.05190
  0-1A  -> 24-3A    4.376380   35297.9   283.3   0.000003825   0.00004  -0.00595   0.00041   0.00022
  0-1A  -> 25-3A    4.429019   35722.5   279.9   0.056321862   0.51905  -0.58183   0.42040   0.06152
  0-1A  -> 26-3A    4.440327   35813.7   279.2   0.000008561   0.00008  -0.00846  -0.00256   0.00075
  0-1A  -> 27-3A    4.467037   36029.1   277.6   0.151791356   1.38698   1.02671   0.56422  -0.12044
  0-1A  -> 28-3A    4.484626   36171.0   276.5   0.000001356   0.00001  -0.00051  -0.00345   0.00045
  0-1A  -> 29-3A    4.519401   36451.4   274.3   0.131416185   1.18689   0.99950  -0.43240   0.03040
  0-1A  -> 30-3A    4.575187   36901.4   271.0   0.330642454   2.94979  -0.06992   1.71607   0.00364
  0-1A  -> 31-3A    4.605738   37147.8   269.2   0.064459616   0.57126   0.13802  -0.74310   0.00364
  0-1A  -> 32-3A    4.628117   37328.3   267.9   0.000001525   0.00001   0.00178  -0.00321  -0.00005
  0-1A  -> 33-3A    4.692955   37851.2   264.2   0.000698398   0.00607   0.07379  -0.02381   0.00793
  0-1A  -> 34-3A    4.842706   39059.1   256.0   0.055277313   0.46591  -0.68164   0.02882   0.02124
  0-1A  -> 35-3A    4.878749   39349.8   254.1   0.009466906   0.07920  -0.09153   0.26329  -0.03876
  0-1A  -> 36-3A    4.911856   39616.8   252.4   0.001751375   0.01455   0.00817   0.02476  -0.11779
  0-1A  -> 37-3A    4.941455   39855.5   250.9   0.006714231   0.05546   0.07594  -0.10043   0.19901
  0-1A  -> 38-3A    4.971861   40100.8   249.4   0.005180385   0.04253   0.06953   0.15598   0.11561
  0-1A  -> 39-3A    4.986158   40216.1   248.7   0.009094963   0.07445  -0.06905   0.26088  -0.04030
  0-1A  -> 40-3A    5.010473   40412.2   247.5   0.139158459   1.13363   0.25758   1.03230  -0.04053
  0-1A  -> 41-3A    5.048002   40714.9   245.6   0.000752607   0.00609  -0.07409  -0.01635  -0.01815
  0-1A  -> 42-3A    5.082362   40992.0   243.9   0.016160671   0.12979  -0.23903   0.17271  -0.20694
  0-1A  -> 43-3A    5.101709   41148.1   243.0   0.037290377   0.29835   0.50235  -0.02936  -0.21243
  0-1A  -> 44-3A    5.116095   41264.1   242.3   0.531433247   4.23986  -2.04847  -0.10875   0.17839
  0-1A  -> 45-3A    5.129092   41368.9   241.7   0.119748137   0.95295  -0.72787   0.62712   0.17284
  0-1A  -> 46-3A    5.140208   41458.6   241.2   0.015414778   0.12240   0.32279  -0.11655  -0.06804
  0-1A  -> 47-3A    5.179059   41771.9   239.4   0.116070708   0.91477  -0.24451  -0.90128  -0.20659
  0-1A  -> 48-3A    5.204851   41980.0   238.2   0.088925611   0.69737  -0.27422  -0.78692   0.05410
  0-1A  -> 49-3A    5.224250   42136.4   237.3   0.000028128   0.00022   0.00566   0.01368   0.00078
  0-1A  -> 50-3A    5.241846   42278.3   236.5   0.201575622   1.56962   0.19931  -1.18675   0.34859

----------------------------------------------------------------------------------------------------
                     ABSORPTION SPECTRUM VIA TRANSITION VELOCITY DIPOLE MOMENTS    
----------------------------------------------------------------------------------------------------
     Transition      Energy     Energy  Wavelength fosc(P2)      P2        PX        PY        PZ   
                      (eV)      (cm-1)    (nm)                 (au**2)    (au)      (au)      (au)  
----------------------------------------------------------------------------------------------------
  0-1A  ->  1-3A    1.293552   10433.2   958.5   0.000086895   0.00001  -0.00183  -0.00014   0.00168
  0-1A  ->  2-3A    1.302786   10507.7   951.7   0.000028852   0.00000  -0.00090  -0.00000  -0.00112
  0-1A  ->  3-3A    1.450451   11698.7   854.8   0.000008933   0.00000   0.00008  -0.00082  -0.00019
  0-1A  ->  4-3A    2.188662   17652.7   566.5   0.000000849   0.00000  -0.00024  -0.00021   0.00000
  0-1A  ->  5-3A    2.575114   20769.7   481.5   0.000000721   0.00000  -0.00030   0.00009  -0.00007
  0-1A  ->  6-3A    3.134702   25283.1   395.5   0.001811480   0.00031  -0.01054  -0.00231  -0.01402
  0-1A  ->  7-3A    3.260615   26298.6   380.2   0.000003230   0.00000  -0.00073   0.00022  -0.00006
  0-1A  ->  8-3A    3.414601   27540.6   363.1   0.000000430   0.00000   0.00013  -0.00013  -0.00021
  0-1A  ->  9-3A    3.540281   28554.3   350.2   0.000000253   0.00000  -0.00012  -0.00008  -0.00017
  0-1A  -> 10-3A    3.721180   30013.3   333.2   0.000001129   0.00000  -0.00034   0.00027  -0.00020
  0-1A  -> 11-3A    3.765372   30369.8   329.3   0.077590885   0.01610  -0.12677  -0.00573   0.00069
  0-1A  -> 12-3A    3.825970   30858.5   324.1   0.000000944   0.00000   0.00037  -0.00004  -0.00025
  0-1A  -> 13-3A    3.921340   31627.7   316.2   0.013203110   0.00285   0.00250  -0.05334   0.00172
  0-1A  -> 14-3A    3.959399   31934.7   313.1   0.000004832   0.00000  -0.00068   0.00070   0.00033
  0-1A  -> 15-3A    4.005838   32309.3   309.5   0.000005783   0.00000  -0.00011   0.00106   0.00036
  0-1A  -> 16-3A    4.069600   32823.5   304.7   0.000005427   0.00000  -0.00064  -0.00029  -0.00085
  0-1A  -> 17-3A    4.086351   32958.6   303.4   0.000000713   0.00000   0.00022   0.00024   0.00023
  0-1A  -> 18-3A    4.112048   33165.9   301.5   0.000005115   0.00000   0.00062   0.00068   0.00056
  0-1A  -> 19-3A    4.205820   33922.2   294.8   0.000201937   0.00005   0.00591  -0.00301   0.00168
  0-1A  -> 20-3A    4.223499   34064.8   293.6   0.000000548   0.00000   0.00024   0.00022   0.00016
  0-1A  -> 21-3A    4.280039   34520.8   289.7   0.000001158   0.00000  -0.00050  -0.00012  -0.00012
  0-1A  -> 22-3A    4.290893   34608.4   288.9   0.000000340   0.00000   0.00008   0.00018   0.00020
  0-1A  -> 23-3A    4.325164   34884.8   286.7   0.531067388   0.12662  -0.35571  -0.00305  -0.00890
  0-1A  -> 24-3A    4.376380   35297.9   283.3   0.000001704   0.00000   0.00063   0.00004   0.00009
  0-1A  -> 25-3A    4.429019   35722.5   279.9   0.010277276   0.00251   0.04501  -0.02178  -0.00297
  0-1A  -> 26-3A    4.440327   35813.7   279.2   0.000004367   0.00000   0.00099   0.00023   0.00019
  0-1A  -> 27-3A    4.467037   36029.1   277.6   0.038852991   0.00957  -0.09052  -0.03704   0.00048
  0-1A  -> 28-3A    4.484626   36171.0   276.5   0.000000348   0.00000  -0.00018   0.00017  -0.00016
  0-1A  -> 29-3A    4.519401   36451.4   274.3   0.046925528   0.01169  -0.10259   0.03321  -0.00801
  0-1A  -> 30-3A    4.575187   36901.4   271.0   0.066524795   0.01678   0.00472  -0.12944   0.00105
  0-1A  -> 31-3A    4.605738   37147.8   269.2   0.011287821   0.00287  -0.01302   0.05192   0.00077
  0-1A  -> 32-3A    4.628117   37328.3   267.9   0.000000242   0.00000  -0.00000   0.00012   0.00022
  0-1A  -> 33-3A    4.692955   37851.2   264.2   0.000306065   0.00008  -0.00399   0.00179  -0.00775
  0-1A  -> 34-3A    4.842706   39059.1   256.0   0.024502655   0.00654   0.08078  -0.00175   0.00362
  0-1A  -> 35-3A    4.878749   39349.8   254.1   0.001880302   0.00051   0.01821  -0.01290  -0.00276
  0-1A  -> 36-3A    4.911856   39616.8   252.4   0.001583201   0.00043   0.01686   0.00374  -0.01142
  0-1A  -> 37-3A    4.941455   39855.5   250.9   0.002209842   0.00060   0.00400   0.01734   0.01689
  0-1A  -> 38-3A    4.971861   40100.8   249.4   0.002230022   0.00061   0.01133  -0.01951   0.01011
  0-1A  -> 39-3A    4.986158   40216.1   248.7   0.004393092   0.00121   0.03260  -0.00962   0.00724
  0-1A  -> 40-3A    5.010473   40412.2   247.5   0.018253985   0.00504  -0.04137  -0.05704  -0.00878
  0-1A  -> 41-3A    5.048002   40714.9   245.6   0.000146421   0.00004   0.00544   0.00153   0.00296
  0-1A  -> 42-3A    5.082362   40992.0   243.9   0.007903683   0.00221   0.04640  -0.00156  -0.00767
  0-1A  -> 43-3A    5.101709   41148.1   243.0   0.008262787   0.00232  -0.03923  -0.02440  -0.01377
  0-1A  -> 44-3A    5.116095   41264.1   242.3   0.148849331   0.04198   0.20481   0.00060  -0.00561
  0-1A  -> 45-3A    5.129092   41368.9   241.7   0.015146334   0.00428   0.05717  -0.02961  -0.01172
  0-1A  -> 46-3A    5.140208   41458.6   241.2   0.001992531   0.00056  -0.02102   0.01106   0.00065
  0-1A  -> 47-3A    5.179059   41771.9   239.4   0.034593115   0.00988   0.04153   0.09026   0.00193
  0-1A  -> 48-3A    5.204851   41980.0   238.2   0.013485978   0.00387   0.01800   0.05413  -0.02481
  0-1A  -> 49-3A    5.224250   42136.4   237.3   0.000011772   0.00000   0.00070  -0.00159  -0.00061
  0-1A  -> 50-3A    5.241846   42278.3   236.5   0.041446237   0.01198  -0.04676   0.09766  -0.01585

------------------------------------------------------------------------------------------
                     CD SPECTRUM VIA TRANSITION ELECTRIC DIPOLE MOMENTS    
------------------------------------------------------------------------------------------
     Transition      Energy     Energy  Wavelength    R        MX        MY        MZ   
                      (eV)      (cm-1)    (nm)   (1e40*cgs)   (au)      (au)      (au)  
------------------------------------------------------------------------------------------
  0-1A  ->  1-3A    1.293552   10433.2   958.5   -0.06489   0.03049  -0.52027  -0.03279
  0-1A  ->  2-3A    1.302786   10507.7   951.7   -1.03549  -0.02678  -0.01189   0.50537
  0-1A  ->  3-3A    1.450451   11698.7   854.8    0.00905   0.00030   0.00091   0.00188
  0-1A  ->  4-3A    2.188662   17652.7   566.5    0.00751  -0.00016  -0.00166   0.00396
  0-1A  ->  5-3A    2.575114   20769.7   481.5    0.00066  -0.00023   0.00098  -0.00106
  0-1A  ->  6-3A    3.134702   25283.1   395.5   -0.27717  -0.03200   0.28539   0.06233
  0-1A  ->  7-3A    3.260615   26298.6   380.2   -0.00243   0.00021   0.00067   0.00147
  0-1A  ->  8-3A    3.414601   27540.6   363.1   -0.00109   0.00064  -0.00141   0.00266
  0-1A  ->  9-3A    3.540281   28554.3   350.2    0.00396   0.00112  -0.00149   0.00484
  0-1A  -> 10-3A    3.721180   30013.3   333.2   -0.00127   0.00197   0.00006   0.00474
  0-1A  -> 11-3A    3.765372   30369.8   329.3    7.59351  -0.03217   0.03677   0.64263
  0-1A  -> 12-3A    3.825970   30858.5   324.1    0.00709   0.00169   0.00256  -0.00576
  0-1A  -> 13-3A    3.921340   31627.7   316.2  -13.62706  -0.01720   0.03603  -0.04663
  0-1A  -> 14-3A    3.959399   31934.7   313.1   -0.00186  -0.00061  -0.00173   0.00443
  0-1A  -> 15-3A    4.005838   32309.3   309.5    0.00169   0.00064  -0.00425   0.00962
  0-1A  -> 16-3A    4.069600   32823.5   304.7   -0.00042   0.00069   0.01056  -0.01263
  0-1A  -> 17-3A    4.086351   32958.6   303.4    0.00108  -0.00006  -0.00323   0.00420
  0-1A  -> 18-3A    4.112048   33165.9   301.5    0.00748   0.00020  -0.00727   0.01009
  0-1A  -> 19-3A    4.205820   33922.2   294.8   -5.46055  -0.04987   0.16862  -0.02067
  0-1A  -> 20-3A    4.223499   34064.8   293.6    0.00216  -0.00003  -0.00275   0.00373
  0-1A  -> 21-3A    4.280039   34520.8   289.7    0.00160  -0.00026   0.00234  -0.00169
  0-1A  -> 22-3A    4.290893   34608.4   288.9    0.00223  -0.00034  -0.00274   0.00387
  0-1A  -> 23-3A    4.325164   34884.8   286.7   35.07789  -0.04235   0.06387   1.62692
  0-1A  -> 24-3A    4.376380   35297.9   283.3   -0.00015  -0.00019  -0.00097  -0.00179
  0-1A  -> 25-3A    4.429019   35722.5   279.9   12.73292   0.01324  -0.05592   0.06836
  0-1A  -> 26-3A    4.440327   35813.7   279.2   -0.00177  -0.00029  -0.00126  -0.00252
  0-1A  -> 27-3A    4.467037   36029.1   277.6   49.73261  -0.07285  -0.02820   0.12272
  0-1A  -> 28-3A    4.484626   36171.0   276.5    0.00152   0.00096   0.00110   0.00239
  0-1A  -> 29-3A    4.519401   36451.4   274.3  -12.29826   0.01118   0.00017   0.49279
  0-1A  -> 30-3A    4.575187   36901.4   271.0  -33.01092  -0.02506   0.03981  -0.01310
  0-1A  -> 31-3A    4.605738   37147.8   269.2   -2.91801   0.01025  -0.00615   0.05728
  0-1A  -> 32-3A    4.628117   37328.3   267.9   -0.00069  -0.00043  -0.00069  -0.00039
  0-1A  -> 33-3A    4.692955   37851.2   264.2   -1.97842   0.06119   0.01952   0.01844
  0-1A  -> 34-3A    4.842706   39059.1   256.0   -2.18417  -0.01758   0.00050  -0.34675
  0-1A  -> 35-3A    4.878749   39349.8   254.1    1.73908  -0.03394  -0.04497  -0.13015
  0-1A  -> 36-3A    4.911856   39616.8   252.4   -0.12877  -0.10850  -0.10400  -0.03171
  0-1A  -> 37-3A    4.941455   39855.5   250.9    6.77845  -0.02517   0.02737  -0.04883
  0-1A  -> 38-3A    4.971861   40100.8   249.4    5.13924  -0.05114   0.02001  -0.09054
  0-1A  -> 39-3A    4.986158   40216.1   248.7   -3.46919  -0.02211  -0.01158  -0.21967
  0-1A  -> 40-3A    5.010473   40412.2   247.5   36.43016  -0.03840  -0.05289   0.31546
  0-1A  -> 41-3A    5.048002   40714.9   245.6    0.00884  -0.00069  -0.03258   0.03320
  0-1A  -> 42-3A    5.082362   40992.0   243.9  -55.65990  -0.00488   0.00746  -0.55866
  0-1A  -> 43-3A    5.101709   41148.1   243.0   -4.81350  -0.02546   0.15375  -0.12952
  0-1A  -> 44-3A    5.116095   41264.1   242.3  153.63423   0.12885   0.03049  -0.32862
  0-1A  -> 45-3A    5.129092   41368.9   241.7   -2.58042   0.03931  -0.07176   0.45760
  0-1A  -> 46-3A    5.140208   41458.6   241.2  -12.11624   0.03182  -0.00148  -0.22423
  0-1A  -> 47-3A    5.179059   41771.9   239.4  -99.53842   0.00752  -0.06902  -0.72977
  0-1A  -> 48-3A    5.204851   41980.0   238.2   63.20738   0.03090   0.18240   0.33158
  0-1A  -> 49-3A    5.224250   42136.4   237.3   -0.04673  -0.00005   0.00879  -0.02656
  0-1A  -> 50-3A    5.241846   42278.3   236.5  -116.73794   0.06616   0.14874   1.17888

------------------------------------------------------------------------------------------
                     CD SPECTRUM VIA TRANSITION VELOCITY DIPOLE MOMENTS    
------------------------------------------------------------------------------------------
     Transition      Energy     Energy  Wavelength    R        MX        MY        MZ   
                      (eV)      (cm-1)    (nm)   (1e40*cgs)   (au)      (au)      (au)  
------------------------------------------------------------------------------------------
  0-1A  ->  1-3A    1.293552   10433.2   958.5   -0.39947   0.03049  -0.52027  -0.03279
  0-1A  ->  2-3A    1.302786   10507.7   951.7   -5.34689  -0.02678  -0.01189   0.50537
  0-1A  ->  3-3A    1.450451   11698.7   854.8   -0.00955   0.00030   0.00091   0.00188
  0-1A  ->  4-3A    2.188662   17652.7   566.5    0.00232  -0.00016  -0.00166   0.00396
  0-1A  ->  5-3A    2.575114   20769.7   481.5    0.00115  -0.00023   0.00098  -0.00106
  0-1A  ->  6-3A    3.134702   25283.1   395.5   -4.89105  -0.03200   0.28539   0.06233
  0-1A  ->  7-3A    3.260615   26298.6   380.2   -0.00033   0.00021   0.00067   0.00147
  0-1A  ->  8-3A    3.414601   27540.6   363.1   -0.00111   0.00064  -0.00141   0.00266
  0-1A  ->  9-3A    3.540281   28554.3   350.2   -0.00301   0.00112  -0.00149   0.00484
  0-1A  -> 10-3A    3.721180   30013.3   333.2   -0.00556   0.00197   0.00006   0.00474
  0-1A  -> 11-3A    3.765372   30369.8   329.3   14.68097  -0.03217   0.03677   0.64263
  0-1A  -> 12-3A    3.825970   30858.5   324.1    0.00650   0.00169   0.00256  -0.00576
  0-1A  -> 13-3A    3.921340   31627.7   316.2   -6.68936  -0.01720   0.03603  -0.04663
  0-1A  -> 14-3A    3.959399   31934.7   313.1    0.00210  -0.00061  -0.00173   0.00443
  0-1A  -> 15-3A    4.005838   32309.3   309.5   -0.00355   0.00064  -0.00425   0.00962
  0-1A  -> 16-3A    4.069600   32823.5   304.7    0.02304   0.00069   0.01056  -0.01263
  0-1A  -> 17-3A    4.086351   32958.6   303.4    0.00056  -0.00006  -0.00323   0.00420
  0-1A  -> 18-3A    4.112048   33165.9   301.5    0.00265   0.00020  -0.00727   0.01009
  0-1A  -> 19-3A    4.205820   33922.2   294.8   -2.55425  -0.04987   0.16862  -0.02067
  0-1A  -> 20-3A    4.223499   34064.8   293.6   -0.00007  -0.00003  -0.00275   0.00373
  0-1A  -> 21-3A    4.280039   34520.8   289.7    0.00015  -0.00026   0.00234  -0.00169
  0-1A  -> 22-3A    4.290893   34608.4   288.9    0.00081  -0.00034  -0.00274   0.00387
  0-1A  -> 23-3A    4.325164   34884.8   286.7    1.17226  -0.04235   0.06387   1.62692
  0-1A  -> 24-3A    4.376380   35297.9   283.3   -0.00094  -0.00019  -0.00097  -0.00179
  0-1A  -> 25-3A    4.429019   35722.5   279.9    4.66598   0.01324  -0.05592   0.06836
  0-1A  -> 26-3A    4.440327   35813.7   279.2   -0.00306  -0.00029  -0.00126  -0.00252
  0-1A  -> 27-3A    4.467037   36029.1   277.6   22.10836  -0.07285  -0.02820   0.12272
  0-1A  -> 28-3A    4.484626   36171.0   276.5   -0.00104   0.00096   0.00110   0.00239
  0-1A  -> 29-3A    4.519401   36451.4   274.3  -14.44623   0.01118   0.00017   0.49279
  0-1A  -> 30-3A    4.575187   36901.4   271.0  -14.81852  -0.02506   0.03981  -0.01310
  0-1A  -> 31-3A    4.605738   37147.8   269.2   -1.13797   0.01025  -0.00615   0.05728
  0-1A  -> 32-3A    4.628117   37328.3   267.9   -0.00046  -0.00043  -0.00069  -0.00039
  0-1A  -> 33-3A    4.692955   37851.2   264.2   -0.96264   0.06119   0.01952   0.01844
  0-1A  -> 34-3A    4.842706   39059.1   256.0   -7.08547  -0.01758   0.00050  -0.34675
  0-1A  -> 35-3A    4.878749   39349.8   254.1    0.84371  -0.03394  -0.04497  -0.13015
  0-1A  -> 36-3A    4.911856   39616.8   252.4   -4.84921  -0.10850  -0.10400  -0.03171
  0-1A  -> 37-3A    4.941455   39855.5   250.9   -1.17047  -0.02517   0.02737  -0.04883
  0-1A  -> 38-3A    4.971861   40100.8   249.4   -4.86517  -0.05114   0.02001  -0.09054
  0-1A  -> 39-3A    4.986158   40216.1   248.7   -5.65898  -0.02211  -0.01158  -0.21967
  0-1A  -> 40-3A    5.010473   40412.2   247.5    4.69976  -0.03840  -0.05289   0.31546
  0-1A  -> 41-3A    5.048002   40714.9   245.6    0.11381  -0.00069  -0.03258   0.03320
  0-1A  -> 42-3A    5.082362   40992.0   243.9   10.21166  -0.00488   0.00746  -0.55866
  0-1A  -> 43-3A    5.101709   41148.1   243.0   -2.43540  -0.02546   0.15375  -0.12952
  0-1A  -> 44-3A    5.116095   41264.1   242.3   70.83626   0.12885   0.03049  -0.32862
  0-1A  -> 45-3A    5.129092   41368.9   241.7   -2.47729   0.03931  -0.07176   0.45760
  0-1A  -> 46-3A    5.140208   41458.6   241.2   -2.07217   0.03182  -0.00148  -0.22423
  0-1A  -> 47-3A    5.179059   41771.9   239.4  -18.14050   0.00752  -0.06902  -0.72977
  0-1A  -> 48-3A    5.204851   41980.0   238.2    5.42802   0.03090   0.18240   0.33158
  0-1A  -> 49-3A    5.224250   42136.4   237.3    0.00515  -0.00005   0.00879  -0.02656
  0-1A  -> 50-3A    5.241846   42278.3   236.5  -17.75899   0.06616   0.14874   1.17888

Total run time:      665.299 sec

           *** ORCA-CIS/TD-DFT FINISHED WITHOUT ERROR ***
-----------------------
CIS/TD-DFT TOTAL ENERGY
-----------------------

    E(SCF)  =  -9711.930667388 Eh
    DE(CIS) =      0.047537159 Eh (Root  1)
    ----------------------------- ---------
    E(tot)  =  -9711.883130229 Eh


Maximum memory used throughout the entire CIS-calculation: 15192.0 MB
=> NOW LEAVING ORCA_CIS


-------------------------------------------------------------------------------
                          DFT DISPERSION CORRECTION                            
                                                                               
                                DFTD4 V3.4.0                                   
-------------------------------------------------------------------------------
The CAM-B3LYP functional is recognized
Active option DFTDOPT                   ...         5   

-------------------------   ----------------
Dispersion correction           -0.202566970
-------------------------   ----------------


-------------------------   --------------------
FINAL SINGLE POINT ENERGY     -9712.085697198510
-------------------------   --------------------



           ************************************************************
           *        Program running with 24 parallel MPI-processes    *
           *              working on a common directory               *
           ************************************************************

------------------------------------------------------------------------------
                              ORCA PROPERTY CALCULATIONS
------------------------------------------------------------------------------

GBWName                                 ... TPA-OMe.gbw
Number of atoms                         ...    100
Number of basis functions               ...   1239
Max core memory                         ...  20000 MB

Electric properties:
Dipole moment                           ... YES
Quadrupole moment                       ...  NO
Static polarizability (Dipole/Dipole)   ...  NO
Static polarizability (Dipole/Quad.)    ...  NO
Static polarizability (Quad./Quad.)     ...  NO
Static polarizability (Velocity)        ...  NO
Static hyperpolarizability              ...  NO

Atomic electric properties:
Dipole moment                           ...  NO
Quadrupole moment                       ...  NO
Static polarizability                   ...  NO

Choice of electric origin               ... Center of mass
Position of electric origin             ...    -0.455795    -0.147172    -0.002734

General magnetic properties:
Magnetizability                         ...  NO

EPR properties:
g-Tensor (aka g-matrix)                 ...  NO
Zero-Field splitting spin-orbit         ...  NO
Zero-field splitting spin-spin          ...  NO
Hyperfine couplings                     ...  NO (   0 nuclei)
Quadrupole couplings                    ...  NO (   0 nuclei)
Contact density                         ...  NO (   0 nuclei)

NMR properties:
Chemical shifts                         ...  NO (   0 nuclei)
Spin-rotation constants                 ...  NO (   0 nuclei)
Spin-spin couplings                     ...  NO (   0 nuclei,    0 pairs)

Choice of magnetic origin               ... GIAO
Position of magnetic origin             ...     0.000000     0.000000     0.000000

Properties with geometric perturbations:
SCF Hessian                             ...  NO
IR spectrum                             ...  NO
VCD spectrum                            ...  NO
X-ray spectroscopy properties:
SCF XES/XAS/RIXS spectra                ...  NO

SCF SOC stabilization energy            ...  NO
Diagonal Born-Oppenheimer correction    ...  NO

-------------
DIPOLE MOMENT
-------------

Method             : SCF
Type of density    : Electron Density
Multiplicity       :   1
Irrep              :   0
Energy             : -9711.9306673879982554 Eh
Basis              : AO
                                X                 Y                 Z
Electronic contribution:     -9.986822934     -94.120092558      -1.649712921
Nuclear contribution   :      9.873489425      96.544611908       1.793538273
                        -----------------------------------------
Total Dipole Moment    :     -0.113333509       2.424519350       0.143825352
                        -----------------------------------------
Magnitude (a.u.)       :      2.431424335
Magnitude (Debye)      :      6.180189512



--------------------
Rotational spectrum 
--------------------
 
Rotational constants in cm-1:             0.000893             0.000191             0.000165 
Rotational constants in MHz :            26.781506             5.734879             4.950827 

Dipole components along the rotational axes: 
x,y,z [a.u.] :     0.079192     2.425477     0.150387 
x,y,z [Debye]:     0.201289     6.165072     0.382253 

 

Dipole moment calculation done in   0.1 sec 

Maximum memory used throughout the entire PROP-calculation: 122.0 MB

--------------------------------
SUGGESTED CITATIONS FOR THIS RUN
--------------------------------

Below you find a list of papers that are relevant to this ORCA run
We neither can nor want to force you to cite these papers, but we appreciate if you do
You receive ORCA, which is the product of decades of hard work by many enthusiastic individuals, for free
The only thing we kindly ask in return is that you cite our papers,
We deeply appreciate it, if you show your appreciation for ORCA by not just citing the generic ORCA reference.

Please note that relegating all ORCA citations to the supporting information does *not* help us.
SI sections are not indexed - citations you put there will not count into any citation statistics
But we need these citations in order to attract the funding resources that allow us to do what we are doing

Therefore, if you are a happy ORCA user, please consider citing a few of the papers listed below in the main body of your paper

In addition to the list printed below, the program has created the file TPA-OMe.bibtex that contains the list in bibtex format
You can import this file easily into all common literature databanks and citation aid programs

It goes without saying that in many instances, there are alternative algorithms to achieve similar
results as the ones you have gotten from ORCA. It is, of course, also the case that in some instances
ORCA just re-implements algorithms worked out by others. We are fully aware of that and we are also
fully appreciative of our colleagues work. Hence this citation list should not be read as indicating
that the listed papers, which are focused on our own work, are the only ones worth citing. It simply
meant to make it easier for users to cite ORCA specific papers. It is not a substitute for doing your
own literature research and citing the relevant literature in a scientifically appropriate manner.

List of essential papers. We consider these as the minimum necessary citations

  1. Neese, F.
     Software update: the ORCA program system, version 6.0
     WIRES Comput. Molec. Sci. 2025 15(1), e70019
     doi.org/10.1002/wcms.70019

List of papers to cite with high priority. The work reported in these papers was absolutely
necessary for this run to complete.
Our perspective: the developers of density functionals and basis sets usually get cited in chemistry papers
Good! But without the algorithms to do something with them, the functionals or basis sets would not do anything.
Hence, in our opinion, the algorithm design and method developments papers are equally worthy of getting cited

  1. Neese, F.; Olbrich, G.
     Efficient use of the resolution of the identity approximation in time-dependent density functional calculations with hybrid density functionals
     Chem. Phys. Lett. 2002 362 , 170-178
     doi.org/10.1016/s0009-2614(02)01053-9
  2. Neese, F.
     An improvement of the resolution of the identity approximation for the formation of the Coulomb matrix
     J. Comp. Chem. 2003 24(14), 1740-1747
     doi.org/10.1002/jcc.10318
  3. Neese, F.
     Definition of corresponding orbitals and the diradical character in broken symmetry DFT calculations on spin coupled systems
     J. Phys. Chem. Solids 2004 65(4), 781-785
     doi.org/10.1016/j.jpcs.2003.11.015
  4. Neese, F.; Wennmohs, F.; Hansen, A.; Becker, U.
     Efficient, approximate and parallel Hartree-Fock and hybrid DFT calculations. A 'chain-of-spheres' algorithm for the Hartree-Fock exchange
     Chem. Phys. 2009 356(1-3), 98-109
     doi.org/10.1016/j.chemphys.2008.10.036
  5. Caldeweyher, E.; Bannwarth, C.; Grimme, S.
     Extension of the D3 dispersion coefficient model
     J. Chem. Phys. 2017 147 , 034112
     doi.org/10.1063/1.4993215
  6. Caldeweyher, E.; Ehlert, S.; Hansen, A.; Neugebauer, H.; Spicher, S.; Bannwarth, C.; Grimme, S.
     A generally applicable atomic-charge dependent London dispersion correction
     J. Chem. Phys. 2019 150 , 154122
     doi.org/10.1063/1.5090222
  7. Helmich-Paris, B.; de Souza, B.; Neese, F.; Izsák, R.
     An improved chain of spheres for exchange algorithm
     J. Chem. Phys. 2021 155(10), 104109
     doi.org/10.1063/5.0058766
  8. Helmich-Paris, B.
     A trust-region augmented Hessian implementation for restricted and unrestricted Hartree–Fock and Kohn–Sham methods
     J. Chem. Phys. 2021 154 , 164104
     doi.org/10.1063/5.0040798
  9. Neese, F.
     The SHARK Integral Generation and Digestion System
     J. Comp. Chem. 2022 44(3), 381
     doi.org/10.1002/jcc.26942

List of suggested additional citations. These are papers that are important in the 'surrounding' of 
of this run, or papers that preceded the highly important papers. If you like your results we are grateful for a citation.

  1. Izsak, R.; Neese, F.
     An overlap fitted chain of spheres exchange method
     J. Chem. Phys. 2011 135 , 144105
     doi.org/10.1063/1.3646921
  2. Izsak, R.; Hansen, A.; Neese, F.
     The resolution of identity and chain of spheres approximations for the LPNO-CCSD singles Fock term
     Molec. Phys. 2012 110 , 2413-2417
     doi.org/10.1080/00268976.2012.687466
  3. Neese, F.
     The ORCA program system
     WIRES Comput. Molec. Sci. 2012 2(1), 73-78
     doi.org/10.1002/wcms.81
  4. Izsak, R.; Neese, F.; Klopper, W.
     Robust fitting techniques in the chain of spheres approximation to the Fock exchange: The role of the complementary space
     J. Chem. Phys. 2013 139 , 
     doi.org/10.1063/1.4819264
  5. Neese, F.
     Software update: the ORCA program system, version 4.0
     WIRES Comput. Molec. Sci. 2018 8(1), 1-6
     doi.org/10.1002/wcms.1327
  6. Neese, F.; Wennmohs, F.; Becker, U.; Riplinger, C.
     The ORCA quantum chemistry program package
     J. Chem. Phys. 2020 152(22), 224108
     doi.org/10.1063/5.0004608
  7. Neese, F.
     Software update: The ORCA program system—Version 5.0
     WIRES Comput. Molec. Sci. 2022 12(1), e1606
     doi.org/10.1002/wcms.1606

List of optional additional citations

  1. Neese, F.
     Approximate second-order SCF convergence for spin unrestricted wavefunctions
     Chem. Phys. Lett. 2000 325(1-3), 93-98
     doi.org/10.1016/s0009-2614(00)00662-x

Timings for individual modules:

Sum of individual times          ...     3040.562 sec (=  50.676 min)
Startup calculation              ...       15.213 sec (=   0.254 min)   0.5 %
SCF iterations                   ...     2349.764 sec (=  39.163 min)  77.3 %
Property integrals               ...        3.543 sec (=   0.059 min)   0.1 %
Property calculations            ...        3.354 sec (=   0.056 min)   0.1 %
CIS module                       ...      668.687 sec (=  11.145 min)  22.0 %
                             ****ORCA TERMINATED NORMALLY****
TOTAL RUN TIME: 0 days 0 hours 50 minutes 48 seconds 870 msec
