96
(Arnold, 2025)
C         -5.00016        1.36431        1.37624
C         -4.52567        0.14058        0.90778
C         -3.16017        0.03433        0.63952
C         -2.28574        1.13590        0.80752
C         -2.78682        2.35357        1.27922
C         -4.14332        2.45875        1.56789
N         -2.43325       -1.04711        0.13529
C         -1.09712       -0.65333       -0.02045
C         -0.97439        0.70339        0.39442
C          0.00044       -1.40699       -0.42359
C          1.23786       -0.75816       -0.44393
C          1.35483        0.60830       -0.06072
C          0.26387        1.34926        0.38148
C          2.56613       -1.21657       -0.76634
C          3.44632       -0.12466       -0.56415
N          2.70412        0.98054       -0.13983
C          3.07018       -2.43902       -1.22183
C          4.43313       -2.55587       -1.47335
C          5.28878       -1.46008       -1.28607
C          4.81143       -0.23108       -0.83441
C          3.06975        4.64569        0.10707
C          2.58282        3.40249       -0.26550
C          3.21604        2.24188        0.19184
C          4.35513        2.35709        0.99556
C          4.83387        3.61299        1.33663
C          4.20913        4.81759        0.93092
C          4.67530        6.13244        1.36186
C          3.71612        7.09920        1.89897
C          6.09217        6.48429        1.26876
C          6.84456        6.28266        0.08772
C          8.18877        6.61676       -0.02384
C          8.83151        7.18056        1.07447
C          8.15052        7.40671        2.26705
C          6.80743        7.05800        2.34673
C          3.66699        8.44515        1.46357
C          2.76341        9.37472        1.96570
C          1.85949        8.96899        2.94303
C          1.85241        7.65984        3.41530
C          2.76989        6.75531        2.89366
Cl         0.72473       10.11148        3.58226
Cl        10.50730        7.60697        0.95524
Cl         2.77797        5.16546        3.60053
Cl         4.70249        8.98051        0.17355
Cl         6.03711        7.26644        3.89176
Cl         6.06789        5.68489       -1.34896
Cl         6.18174        3.65729        2.43591
Cl         2.27695        6.03336       -0.58316
C         -3.13031       -4.29681       -1.47667
C         -2.63749       -3.01609       -1.27738
C         -2.93588       -2.33534       -0.09205
C         -3.73573       -2.95725        0.87269
C         -4.22502       -4.23351        0.64338
C         -3.94760       -4.96884       -0.53544
C         -4.46211       -6.31503       -0.75989
C         -3.56972       -7.37607       -1.23042
C         -5.87417       -6.61145       -0.51254
C         -6.91989       -5.80270       -1.01716
C         -8.26504       -6.07436       -0.79705
C         -8.60806       -7.19682       -0.04798
C         -7.62916       -8.03439        0.47877
C         -6.29343       -7.73052        0.24549
C         -3.90489       -8.22501       -2.31175
C         -3.08292       -9.25437       -2.75339
C         -1.86753       -9.46418       -2.10799
C         -1.47048       -8.65781       -1.04485
C         -2.31554       -7.63657       -0.62814
Cl        -0.83046      -10.74739       -2.63848
Cl       -10.27950       -7.55395        0.23717
Cl        -1.80824       -6.72418        0.76278
Cl        -5.36010       -7.94348       -3.22072
Cl        -5.11553       -8.74429        1.02580
Cl        -6.55725       -4.44889       -2.04681
Cl        -5.10365       -4.97992        1.94683
Cl        -2.80851       -5.02601       -3.02407
H         -6.06513        1.47017        1.59298
H         -5.20784       -0.69600        0.74711
H         -2.11757        3.20703        1.41030
H         -4.54791        3.40226        1.93955
H         -0.08169       -2.46224       -0.69000
H          0.35885        2.37876        0.73053
H          2.39600       -3.28354       -1.38237
H          4.84026       -3.50407       -1.82990
H          6.35397       -1.56594       -1.50168
H          5.48881        0.61536       -0.71088
H          1.73006        3.33826       -0.94029
H          4.83589        1.46806        1.40214
H          8.71589        6.46027       -0.96339
H          8.66003        7.83120        3.13033
H          2.75268       10.39407        1.58393
H          1.16061        7.34952        4.19642
H         -2.06044       -2.52919       -2.06294
H         -3.93467       -2.46460        1.82384
H         -9.03121       -5.42882       -1.22282
H         -7.89848       -8.89864        1.08364
H         -3.37825       -9.86727       -3.60328
H         -0.52547       -8.83267       -0.53343