81
DTA (Tong, 2025)
C 5.077832 -1.82148 -0.44696
C 5.023911 -0.39444 -0.10269
C 6.260832 0.330753 0.216682
C 3.737891 0.305457 -0.0786
C 5.754301 -2.76596 0.35535
C 5.814376 -4.11801 0.039984
C 5.177984 -4.56776 -1.11174
C 4.49316 -3.68651 -1.94135
C 4.454615 -2.33909 -1.6036
C 6.391106 1.117059 1.382403
C 7.552817 1.811553 1.697321
C 8.639762 1.729366 0.833988
C 8.573862 0.969339 -0.32858
C 7.397245 0.289691 -0.62027
C 2.611641 -0.19722 0.611113
C 1.391197 0.45911 0.649652
C 1.227259 1.67238 -0.03118
C 2.316663 2.20648 -0.73066
C 3.529432 1.535964 -0.74134
Cl 7.3379 -0.54646 -2.13716
Cl 5.113651 1.17121 2.553674
Cl 4.782125 2.216227 -1.73131
Cl 2.750553 -1.63148 1.577632
N -0.000034 2.362413 0.000688
Cl 6.469313 -2.28534 1.859395
Cl 3.68277 -1.27658 -2.73539
Cl 5.239386 -6.24862 -1.51865
C -5.07888 -1.82037 0.446881
C -5.02476 -0.39328 0.102852
C -3.73863 0.306415 0.078868
C -6.26158 0.332153 -0.21639
C -4.45574 -2.33825 1.603436
C -4.49447 -3.68573 1.94097
C -5.17942 -4.56674 1.111217
C -5.81575 -4.11672 -0.04043
C -5.75549 -2.76462 -0.35558
C -3.53 1.536893 0.741766
C -2.31724 2.207272 0.731072
C -1.22787 1.673027 0.031624
C -1.39194 0.459947 -0.64933
C -2.61252 -0.19628 -0.6109
C -7.39798 0.291133 0.620575
C -8.57449 0.971028 0.329022
C -8.64027 1.731273 -0.83341
C -7.55333 1.81343 -1.69675
C -6.39173 1.118675 -1.38198
Cl -2.75156 -1.63036 -1.57767
Cl -4.78262 2.217122 1.731858
Cl -5.1143 1.17279 -2.55326
Cl -7.33875 -0.5453 2.137325
Cl -3.68374 -1.27603 2.735394
Cl -6.47043 -2.28366 -1.85954
Cl -5.24106 -6.24766 1.517866
C 0.000833 3.791813 -0.00197
C -0.83088 4.49503 -0.87603
C -0.83131 5.8882 -0.86327
C 0.003262 6.607761 -0.003
C 0.838197 5.8859 0.86056
C 0.835304 4.495905 0.873668
C 0.01187 8.114508 0.001468
Cl 10.09543 2.585835 1.212078
Cl -10.0958 2.588038 -1.21132
H 6.331314 -4.80906 0.696324
H 4.013944 -4.03541 -2.84919
H 7.612431 2.388153 2.613578
H 9.41501 0.921625 -1.01106
H 0.578505 0.040099 1.23406
H 2.209891 3.131895 -1.28677
H -4.0153 -4.03484 2.848752
H -6.33279 -4.80758 -0.69688
H -2.21049 3.132896 1.286813
H -0.57929 0.040872 -1.23376
H -9.41563 0.923342 1.011512
H -7.61285 2.390225 -2.61289
H -1.47727 3.946273 -1.55634
H -1.48524 6.427579 -1.54486
H 1.492208 6.424315 1.543266
H 1.479423 3.945301 1.554705
H -0.71031 8.516558 -0.71418
H 1.000474 8.505766 -0.26191
H -0.23912 8.509285 0.991822