101
THDBA-PyBTM (Matsuoka, 2023)
Cl  -2.866086 -5.376278 0.390651
Cl  0.516808 1.042482 1.116301
Cl  -5.041337 0.163974 -0.252261
Cl  -1.231027 -2.140977 3.004752
Cl  -2.540198 4.235529 0.134327
Cl  1.538583 1.599092 -2.525916
Cl  -4.992414 -2.661793 3.039675
Cl  0.097616 5.213452 -3.231218
Cl  -3.588204 0.498640 -3.577360
Cl  0.437825 5.126591 2.249690
Cl  -3.906884 -2.921734 -2.352835
Cl  -2.649075 2.994757 3.641693
Cl  -0.369261 9.757920 -0.378516
Cl  -8.647535 -4.560416 -0.418355
N  -0.503205 -4.663689 -0.397176
N  3.075324 1.463167 0.878126
N  5.559024 -2.674442 -0.082616
C  -1.661642 -4.163420 -0.048317
C  4.203159 2.168197 0.642879
C  0.536590 -3.845037 -0.660620
C  -1.945873 -2.774826 0.069802
C  1.824477 -4.509071 -0.939131
C  5.491448 0.057681 0.620075
H  4.559849 -0.471257 0.469183
C  5.481706 1.448208 0.773313
C  3.041579 -3.904677 -0.604331
H  3.070055 -2.920631 -0.151167
C  4.250772 -4.585819 -0.775781
C  4.254725 -5.878811 -1.336450
C  6.687873 -0.659203 0.616683
C  -4.489930 -2.794390 0.335345
C  6.702267 2.114633 0.971670
H  6.721215 3.187637 1.131960
C  -3.073282 -0.941310 1.333413
C  7.895963 1.400583 0.988154
H  8.834194 1.925911 1.143739
C  0.371078 -2.450326 -0.630777
H  1.188301 -1.785914 -0.886084
C  -0.860945 -1.934779 -0.277761
H  -1.010539 -0.862134 -0.262787
C  -3.869757 0.193496 1.052446
C  -0.508210 2.913732 -1.186996
C  3.038566 -6.469770 -1.685094
H  3.036678 -7.468699 -2.112548
C  1.911895 1.995341 0.611654
C  1.712528 3.269865 0.015971
C  1.835197 -5.808058 -1.473887
H  0.889757 -6.284747 -1.704636
C  6.685565 -2.119481 0.383044
C  4.125972 3.506092 0.219524
H  5.026032 4.086484 0.058666
C  7.911975 0.017194 0.795028
C  7.807294 -4.234245 0.378194
C  5.527164 -3.991120 -0.322032
C  -1.906704 3.091517 -1.032784
C  6.647774 -4.823822 -0.118602
C  -2.854332 2.364791 -1.742662
H  -3.908650 2.544427 -1.587854
C  2.891655 4.041512 -0.092133
H  2.820738 5.042882 -0.501498
C  -1.065560 1.139791 -2.814540
H  -0.730075 0.391781 -3.520417
C  -2.422552 1.392333 -2.638125
C  -0.139384 1.898658 -2.110137
C  -2.170519 -0.785950 2.417936
C  6.533682 -6.303966 -0.388368
H  7.521677 -6.730784 -0.589243
H  6.149910 -6.803392 0.513037
C  5.576009 -6.576782 -1.553705
H  5.422109 -7.652232 -1.682591
H  6.031613 -6.206583 -2.483483
C  -2.033086 0.402473 3.124723
H  -1.328522 0.470987 3.942446
C  0.260344 5.229320 -0.487155
C  7.848059 -2.868812 0.648865
C  -5.424231 -3.000588 1.375365
C  -3.758594 1.393906 1.746510
H  -4.374750 2.240045 1.477013
C  0.053660 5.986932 -1.658838
C  9.204988 -0.758621 0.703527
H  10.004908 -0.229094 1.230265
C  -0.143063 7.364935 -1.643770
H  -0.290341 7.907313 -2.568231
C  -2.825238 1.490681 2.772200
C  -4.928395 -3.177104 -0.954905
C  -0.125490 8.026430 -0.420709
C  -6.184957 -3.714752 -1.198953
H  -6.479352 -3.980635 -2.205375
C  0.273224 5.962195 0.721963
C  9.048763 -2.181637 1.251212
C  0.084397 7.338196 0.771419
H  0.081070 7.856966 1.720859
C  -6.690555 -3.534843 1.164146
H  -7.365081 -3.687447 1.996012
C  -7.058504 -3.887057 -0.129323
H  8.686675 -4.847627 0.563551
H  9.955464 -2.767043 1.068458
H  8.919188 -2.131936 2.342000
H  9.506806 -0.814525 -0.352653
C  -3.171556 -2.198212 0.573741
C  0.465891 3.768449 -0.507527