169
M2TTM-3Flr-M2TTM (Chowdhury, 2025)
Cl      -7.65375724      -1.99138592      -2.10312963
Cl      -4.32920511       0.40170689       1.62925143
Cl      -5.03539528       0.94201640      -2.64645386
Cl      -7.65484628       2.51790455       1.97496608
Cl      -8.86383735       1.78393205      -2.17577931
Cl      -7.80772981      -1.42482234       2.21720277
Cl       4.16902105      -0.09542494       1.68243586
Cl       7.47683371      -3.16134223      -1.53932306
Cl       5.03664043       0.39620239      -2.16772788
Cl      10.01081784      -0.57669415       0.07220993
Cl       6.93984373       2.51343035       0.57192150
Cl       7.60687002      -2.67276191       2.40679903
C      -11.16645567      -0.19568709       0.42700526
C      -10.23037505      -0.83313237       1.24785596
C       -8.86750613      -0.64461775       1.04793016
C       -8.33924228       0.17982024       0.02154333
C       -9.32306315       0.80362862      -0.78764059
C      -10.68908491       0.62977221      -0.59628217
C       -6.89122769       0.37257198      -0.18388008
C       -6.34384149       1.73404387      -0.33610902
C       -6.65634974       2.79488278       0.55180589
C       -5.46063732       2.09476122      -1.38579975
C       -6.14756490       4.08100301       0.41120033
C       -4.93937131       3.37474141      -1.53644010
C       -5.27664770       4.39251482      -0.63813109
C       -5.99277686      -0.79207404      -0.23754236
C       -4.78046627      -0.86857613       0.49732656
C       -6.25977852      -1.93997847      -1.02911421
C       -3.92696164      -1.96200547       0.45090714
C       -5.41781683      -3.04183126      -1.08552820
C       -4.22877098      -3.07617645      -0.34412288
C      -12.63595327      -0.39156150       0.63737067
C      -13.33101642       0.42816046       1.55072895
C      -13.32202517      -1.39186730      -0.08214735
C      -14.70434929       0.22999047       1.72819805
C      -14.69539985      -1.55515234       0.12825880
C      -15.40556360      -0.75771244       1.03033078
C       -4.72157784       5.77412825      -0.79562640
C       -5.46730178       6.75805390      -1.47749717
C       -3.45602091       6.08896170      -0.25829404
C       -4.92960111       8.04253897      -1.61146632
C       -2.95867953       7.38705245      -0.41461405
C       -3.67653487       8.37799869      -1.09057867
C       -2.63992434       5.05559450       0.48557301
C       -6.82710306       6.44753588      -2.06219565
C       -3.10340579       9.76332748      -1.27540863
C      -12.60151653      -2.28153008      -1.07039532
C      -12.62074419       1.51299067       2.32909412
C      -16.88227441      -0.97387287       1.26365031
C       -3.32217982      -4.24803092      -0.39836037
C       -3.84400412      -5.55072339      -0.51461161
C       -1.92823709      -4.07652670      -0.33215819
C       -3.00633352      -6.66754078      -0.56413413
C       -1.09459406      -5.19178566      -0.38225698
C       -1.62879317      -6.49037437      -0.49802508
C        0.37075320      -5.29562293      -0.34037895
C        0.72231948      -6.65705090      -0.42935058
C        1.34893198      -4.30842538      -0.24071742
C        2.06268461      -7.02657588      -0.41665403
C        2.70644986      -4.67445673      -0.22914114
C        3.04513121      -6.03846285      -0.31737774
C        3.76519746      -3.64097787      -0.12590502
C        3.58381932      -2.49148749       0.65484357
C        4.98217539      -3.77767916      -0.80718310
C        4.57737970      -1.52604653       0.74160852
C        5.96837280      -2.80642890      -0.70407610
C        5.82461228      -1.62632985       0.07146379
C        6.87452739      -0.59843857       0.17117031
C        7.52552966      -0.08722375      -1.04999554
C        7.27610621      -0.07829706       1.49190931
C        6.79624250       0.35019043      -2.18530609
C        8.93348659       0.01235417      -1.18937923
C        7.38532522       1.30737728       1.77445343
C        7.58914152      -0.92184311       2.58851795
C        7.40170748       0.83401398      -3.33952837
C        9.55334943       0.49935225      -2.33459597
C        7.76916867       1.80415509       3.01489402
C        7.96844411      -0.44011245       3.83628712
C        8.79476649       0.91842568      -3.43247041
C        8.06659484       0.93542920       4.07001041
C        9.45384454       1.44198938      -4.67090542
C        8.47769832       1.46205419       5.41005539
C        9.70111158       2.82399123      -4.80503809
C        9.82909839       0.55128888      -5.69795372
C        9.84601301       1.61433287       5.71603147
C        7.49541630       1.80889599       6.36086618
C       10.32018225       3.29058794      -5.96948248
C        9.31414175       3.79936961      -3.71600673
C       10.44520354       1.06248994      -6.84514747
C        9.58071636      -0.93550964      -5.57627471
C       10.20698066       2.11172770       6.97274427
C       10.91906374       1.25680646       4.71205424
C        7.90251286       2.30120330       7.60536133
C        6.02153712       1.65890070       6.05686922
C       10.69726387       2.42835295      -7.00318730
C        9.25234550       2.45791596       7.93340728
C       11.33467264       2.96017234      -8.26520774
C        9.66753106       2.96197736       9.29551789
C       -0.51969488      -7.54019951      -0.53395251
C       -0.62426559      -8.51174876       0.66405390
C       -0.53667142      -8.33480196      -1.85972557
H      -10.56384401      -1.46820323       2.06040545
H      -11.38491854       1.12807352      -1.26131822
H       -6.41632977       4.83951874       1.13726004
H       -4.28174056       3.58402306      -2.37218237
H       -3.04299863      -1.96127574       1.07682535
H       -5.67119111      -3.85930686      -1.74932704
H      -15.23901248       0.86683672       2.42935627
H      -15.22257888      -2.32600637      -0.42932676
H       -5.50715200       8.79979844      -2.13685144
H       -1.98502944       7.62879965       0.00562039
H       -3.19226205       4.63981256       1.33514215
H       -2.37278510       4.21035085      -0.15803666
H       -1.71357741       5.49277849       0.86622552
H       -6.78139008       5.61139250      -2.76821278
H       -7.54683751       6.16338518      -1.28672826
H       -7.22950846       7.31478642      -2.59149669
H       -2.51294616       9.82694569      -2.19797829
H       -3.89318373      10.51722350      -1.34368942
H       -2.44147866      10.03602678      -0.44816865
H      -12.16748750      -1.70372942      -1.89378501
H      -11.77480467      -2.82318317      -0.59835708
H      -13.28519179      -3.01735629      -1.50092332
H      -11.84212448       1.10020811       2.97988895
H      -12.12586083       2.22945428       1.66468144
H      -13.32456469       2.06504157       2.95683799
H      -17.05334365      -1.68866639       2.07829269
H      -17.38417042      -0.04196111       1.54027187
H      -17.37368530      -1.37485531       0.37232750
H       -4.91973672      -5.69307576      -0.53829017
H       -1.50803863      -3.07719776      -0.27052544
H       -3.43977146      -7.66049948      -0.64553164
H        1.07013602      -3.25979353      -0.20109316
H        2.35616418      -8.07101347      -0.47554510
H        4.08951059      -6.33150849      -0.28031522
H        2.66381934      -2.34539595       1.20750566
H        5.16528288      -4.64415234      -1.43070626
H        6.78135145       1.16386812      -4.16482574
H       10.63580841       0.53509182      -2.37683701
H        7.81969186       2.87658615       3.16359123
H        8.20523927      -1.14348581       4.62618254
H       10.51338326       4.35635349      -6.06882069
H        8.23485414       3.78856804      -3.52863514
H        9.79935863       3.55674450      -2.76443604
H        9.59762516       4.81888771      -3.98878277
H       10.73614093       0.37319217      -7.63461584
H       10.11075878      -1.36521212      -4.71917379
H        8.51807613      -1.15717192      -5.43025567
H        9.91442504      -1.46009518      -6.47496314
H       11.26275851       2.23313524       7.20435455
H       10.89338541       0.19225431       4.45449628
H       10.79554901       1.80875099       3.77414532
H       11.91231772       1.48185600       5.10827938
H        7.14300121       2.56967554       8.33619793
H        5.71528216       2.29016784       5.21548010
H        5.76816495       0.62891600       5.78383971
H        5.41595413       1.93741620       6.92281957
H       10.57493503       3.21536646      -9.01454225
H       11.91359251       3.86751281      -8.06924231
H       12.00138883       2.22093823      -8.71886131
H        9.78665626       2.13301438      10.00436241
H       10.62422630       3.49072911       9.25184225
H        8.92033813       3.64189811       9.71533163
H       -1.55191007      -9.09057126       0.60972380
H        0.21286524      -9.21721713       0.66148739
H       -0.61329522      -7.96998666       1.61398679
H        0.30255072      -9.03677140      -1.89807452
H       -1.46228121      -8.91232480      -1.95028049
H       -0.46397729      -7.66602145      -2.72196480