169
M2TTM-3Flr-M2TTM (Chowdhury, 2025)
Cl       7.68535758      -1.32516769       2.74422676
Cl       4.16368642       1.66823327      -0.31515519
Cl       7.76063992       2.57804554       1.96767561
Cl       6.76098924       0.37465006      -3.01783254
Cl      10.03337349       0.10254713      -0.11318571
Cl       5.01924637      -2.20854967      -0.58706496
Cl      -4.16362927      -1.66811686      -0.31615005
Cl      -7.68549940       1.32406806       2.74419818
Cl      -5.01909397       2.20869043      -0.58676651
Cl     -10.03333063      -0.10238574      -0.11387311
Cl      -6.76088552      -0.37350121      -3.01848661
Cl      -7.76065315      -2.57876733       1.96616110
C        8.74219221      -3.50387017      -1.26338995
C        7.35720474      -3.40651426      -1.09402202
C        6.77810654      -2.22066200      -0.65673644
C        7.52788503      -1.05563657      -0.35228227
C        8.92694967      -1.20012417      -0.53518602
C        9.52012398      -2.37718045      -0.97742259
C        6.90483390       0.19829646       0.11220515
C        7.26302337       1.47876455      -0.52677686
C        7.27802872       1.66121850      -1.93329602
C        7.62477261       2.63352289       0.21332298
C        7.62015025       2.86338900      -2.54205408
C        7.96321531       3.84409408      -0.38068162
C        7.96809114       3.97862204      -1.77289659
C        5.92624712       0.17163651       1.21240055
C        4.67163939       0.83251482       1.14833201
C        6.15251694      -0.51742260       2.43255620
C        3.74541946       0.81499905       2.18208287
C        5.23422038      -0.55063323       3.47279424
C        4.00756485       0.11912626       3.36984652
C        9.37274601      -4.77699381      -1.73623202
C        9.48749280      -5.03398184      -3.11820847
C        9.85362787      -5.71402060      -0.79819238
C       10.08271556      -6.22867136      -3.53702312
C       10.44023880      -6.89604850      -1.26249141
C       10.56235755      -7.17501485      -2.62682721
C        8.33479402       5.27797540      -2.42041952
C        9.68829438       5.57589370      -2.68195795
C        7.32533345       6.19823362      -2.77163549
C       10.00741523       6.79403001      -3.29128751
C        7.69094358       7.40469522      -3.37796833
C        9.02553485       7.72427592      -3.64423866
C        5.86631939       5.90209441      -2.50558160
C       10.78947776       4.60341257      -2.32285088
C        9.39761787       9.04721842      -4.27129884
C        9.74682615      -5.46091884       0.68901572
C        8.98608681      -4.04309699      -4.14483342
C       11.17123732      -8.47275793      -3.10322799
C        3.02169554       0.09105605       4.47756312
C        3.45281992       0.10228837       5.81806001
C        1.64251579       0.05273780       4.20665455
C        2.54041522       0.07537230       6.87544763
C        0.73419740       0.02547988       5.26290285
C        1.17809717       0.03702759       6.60000560
C       -0.73454083      -0.02765268       5.26283511
C       -1.17854327      -0.03975232       6.59989976
C       -1.64277826      -0.05447350       4.20650691
C       -2.54088195      -0.07820975       6.87522114
C       -3.02197812      -0.09290076       4.47729430
C       -3.45320569      -0.10468660       5.81775256
C       -4.00776382      -0.12050900       3.36949197
C       -3.74553694      -0.81590236       2.18146638
C       -5.23441988       0.54921980       3.47262279
C       -4.67168225      -0.83299108       1.14764038
C       -6.15264077       0.51644362       2.43230378
C       -5.92628628      -0.17212071       1.21188302
C       -6.90480003      -0.19833509       0.11160824
C       -7.52778607       1.05578950      -0.35245372
C       -7.26299532      -1.47855658      -0.52786750
C       -6.77795255       2.22089537      -0.65647291
C       -8.92683960       1.20039352      -0.53536594
C       -7.27798321      -1.66047183      -1.93445598
C       -7.62477102      -2.63358956       0.21178942
C       -7.35699148       3.40692385      -1.09335844
C       -9.51995200       2.37762972      -0.97720615
C       -7.62013120      -2.86240209      -2.54367759
C       -7.96322906      -3.84392950      -0.38268032
C       -8.74196837       3.50439194      -1.26274065
C       -7.96810173      -3.97791876      -1.77494662
C       -9.37245497       4.77770820      -1.73515249
C       -8.33484905      -5.27701124      -2.42297598
C       -9.48700543       5.03526298      -3.11702893
C       -9.85346594       5.71435874      -0.79678795
C       -9.68821448      -5.57393257      -2.68639139
C       -7.32558799      -6.19799390      -2.77279651
C      -10.08216574       6.23013771      -3.53543665
C       -8.98546873       4.04480252      -4.14399838
C      -10.43999961       6.89657344      -1.26067845
C       -9.74685155       5.46064684       0.69032966
C      -10.00738771      -6.79182546      -3.29615171
C      -10.78915602      -4.60063651      -2.32876444
C       -7.69124521      -7.40418562      -3.37966646
C       -5.86672474      -5.90288236      -2.50478571
C      -10.56192521       7.17610442      -2.62492587
C       -9.02569096      -7.72278734      -3.64777039
C      -11.17073777       8.47406129      -3.10082976
C       -9.39793644      -9.04543721      -4.27535339
C       -0.00025983      -0.00156319       7.57131354
C        0.04166477      -1.26681955       8.45851089
C       -0.04225321       1.26332486       8.45903160
H        6.72141578      -4.25471178      -1.32006007
H       10.59800451      -2.42032268      -1.08272832
H        7.59825025       2.93473955      -3.62335151
H        8.24127359       4.68282514       0.24698288
H        2.81492748       1.35559432       2.05900048
H        5.47816579      -1.11022490       4.36747997
H       10.17467121      -6.42222798      -4.60338241
H       10.81184238      -7.61633753      -0.53713233
H       11.05153849       7.01908273      -3.49673369
H        6.91040878       8.11188288      -3.64947116
H        5.52664741       5.01563897      -3.05239152
H        5.68118251       5.70521033      -1.44417594
H        5.23783096       6.74350893      -2.80756292
H       10.83355717       4.42276206      -1.24319708
H       10.63823045       3.62799292      -2.79747522
H       11.76338397       4.98544941      -2.63871200
H        9.56511622       9.81462751      -3.50522222
H       10.31841850       8.96755608      -4.85656725
H        8.60509562       9.41483677      -4.92977256
H       10.31361251      -4.57304838       0.99021280
H        8.70965522      -5.28918549       0.99619515
H       10.13076908      -6.31221892       1.25654505
H        7.90451950      -3.88881431      -4.06326499
H        9.45269781      -3.06011592      -4.02000263
H        9.19929284      -4.39215339      -5.15819243
H       10.40691757      -9.25285509      -3.20860093
H       11.65047925      -8.35507791      -4.07957582
H       11.91971562      -8.84610091      -2.39809988
H        4.51452350       0.16069842       6.03561164
H        1.29316093       0.01560755       3.17927763
H        2.90443410       0.09293463       7.89898272
H       -1.29334562      -0.01691991       3.17917180
H       -2.90497915      -0.09619436       7.89872130
H       -4.51492568      -0.16318343       6.03519836
H       -2.81504125      -1.35645635       2.05823265
H       -5.47842561       1.10844739       4.36751966
H       -6.72116231       4.25517692      -1.31907368
H      -10.59782671       2.42084762      -1.08254311
H       -7.59818410      -2.93335575      -3.62499989
H       -8.24134873      -4.68288441       0.24465715
H      -10.17397217       6.42413408      -4.60172820
H       -7.90389719       3.89055372      -4.06241619
H       -9.45202893       3.06174579      -4.01957823
H       -9.19862237       4.39423570      -5.15723886
H      -10.81170215       7.61656613      -0.53507383
H      -10.31361145       4.57261023       0.99108383
H       -8.70970813       5.28886322       0.99757630
H      -10.13093101       6.31168498       1.25815851
H      -11.05139614      -7.01613045      -3.50300232
H      -10.83361432      -4.41885249      -1.24932178
H      -10.63729645      -3.62576244      -2.80432859
H      -11.76307863      -4.98257439      -2.64469223
H       -6.91085276      -8.11192680      -3.65013052
H       -5.52595790      -5.01612529      -3.05041928
H       -5.68270707      -5.70702858      -1.44299217
H       -5.23833791      -6.74437678      -2.80675540
H      -10.40672865       9.25479294      -3.20372403
H      -11.64805985       8.35731580      -4.07822324
H      -11.92078773       8.84603159      -2.39663724
H       -9.56963433      -9.81205412      -3.50941277
H      -10.31649547      -8.96445722      -4.86396832
H       -8.60373934      -9.41490133      -4.93075630
H        0.92746456      -1.25612647       9.10174748
H       -0.84159127      -1.31393590       9.10358002
H        0.07073194      -2.17507550       7.85003700
H       -0.92810168       1.25236613       9.10219570
H        0.84095361       1.31017504       9.10418752
H       -0.07127382       2.17183270       7.85093078