97
TPA(CN)(PyBTM'')2 (Hattori, 2019)
C -3.532192 3.180524 -0.903200
C -3.763327 2.026245 -0.133935
C -2.706366 1.543478 0.659457
C -1.480641 2.193017 0.698259
C -1.260221 3.346299 -0.072990
C -2.303317 3.827368 -0.881227
N -0.002500 4.006521 -0.044195
C 1.193600 3.239190 -0.056804
C 0.058319 5.419705 -0.008200
C 1.050705 6.111980 -0.726228
C 1.112329 7.497944 -0.687479
C 0.175372 8.231650 0.060944
C -0.819966 7.542445 0.775616
C -0.873630 6.155989 0.746247
C 1.310677 2.116863 -0.892551
C 2.475724 1.360789 -0.896037
C 3.568634 1.700143 -0.078912
C 3.445608 2.834263 0.744656
C 2.279038 3.585638 0.765041
C -5.058786 1.316694 -0.139786
N -5.091439 0.107773 0.457098
C -6.203900 -0.582177 0.477079
C -7.447911 -0.192186 -0.101827
C -7.386069 1.090789 -0.699843
C -6.221004 1.844074 -0.715252
C -8.656382 -1.021734 -0.071746
C -9.947682 -0.428736 0.324931
C -8.584663 -2.447438 -0.442651
C -9.150769 -3.476486 0.353465
C -9.095365 -4.823474 0.010579
C -8.451329 -5.193616 -1.165274
C -7.871615 -4.237258 -1.992435
C -7.947008 -2.897306 -1.627805
C -10.101678 0.349084 1.501961
C -11.312679 0.912187 1.890682
C -12.436802 0.706466 1.097588
C -12.358299 -0.046246 -0.069400
C -11.133195 -0.593144 -0.437017
Cl -8.763094 1.775765 -1.535583
Cl -7.275776 -1.760818 -2.784572
Cl -9.892651 -3.120118 1.901750
Cl -6.093017 -2.086502 1.389285
Cl -8.766812 0.581831 2.615930
Cl -11.111617 -1.436617 -1.974611
Cl -8.369443 -6.883091 -1.609947
Cl -13.968235 1.404404 1.573375
C 4.820865 0.916767 -0.064939
N 5.869258 1.460113 0.586465
C 7.014570 0.827114 0.625873
C 7.304354 -0.429135 0.015324
C 6.176842 -0.983743 -0.639275
C 4.950326 -0.336140 -0.676028
C 8.618749 -1.076511 0.067887
C 9.836765 -0.302775 -0.237462
C 8.723641 -2.504968 0.421163
C 8.082483 -3.059499 1.559420
C 8.173861 -4.403253 1.906893
C 8.931833 -5.255137 1.110223
C 9.588117 -4.778986 -0.019870
C 9.474934 -3.431629 -0.346892
C 10.983914 -0.317116 0.597372
C 12.140201 0.403441 0.316679
C 12.184980 1.184619 -0.833194
C 11.095502 1.247272 -1.695752
C 9.954406 0.512103 -1.393191
Cl 6.283399 -2.492543 -1.520314
Cl 10.251087 -2.948424 -1.843660
Cl 7.187006 -2.047968 2.678178
Cl 8.238657 1.629356 1.608211
Cl 10.986768 -1.189419 2.118433
Cl 8.674315 0.576717 -2.592141
Cl 9.060330 -6.947065 1.534483
Cl 13.629643 2.099609 -1.199756
C 0.233158 9.661482 0.094460
N 0.278744 10.824213 0.120968
H -4.304166 3.570198 -1.559139
H -2.871490 0.655970 1.259609
H -0.686496 1.813493 1.332950
H -2.142451 4.703608 -1.500675
H 1.769568 5.556757 -1.318773
H 1.878289 8.022251 -1.249744
H -1.539744 8.100461 1.365807
H -1.635424 5.633553 1.314529
H 0.487750 1.846129 -1.545742
H 2.534845 0.514819 -1.573384
H 4.278786 3.105072 1.383061
H 2.200185 4.443361 1.425204
H -6.233367 2.820017 -1.182462
H -9.530515 -5.569280 0.663942
H -7.385692 -4.523407 -2.916776
H -11.377405 1.483609 2.808161
H -13.228888 -0.190802 -0.696835
H 4.122237 -0.809329 -1.187160
H 7.677177 -4.770191 2.796357
H 10.162881 -5.445509 -0.650644
H 12.981229 0.369007 0.997818
H 11.136481 1.841316 -2.600095